4960 4960 23884
1 1 0.0320886418015887
1 2 0.0
1 4 0.0
1 9 0.0
1 14 0.0
1 15 0.0
1 35 0.0
1 39 0.0
1 40 0.0
1 47 0.0
1 48 0.0
1 50 0.0
1 51 0.0
1 63 0.0
1 993 -0.00666666666666667
1 1069 -0.000435048835805744
1 1070 -0.000435049551589145
1 1079 -0.000435040521890533
1 1080 -0.00043505786512812
1 1091 -0.000435051421420119
1 1092 -0.00043504696595054
1 2977 -0.0166666666666667
1 3064 0.0
1 3067 -0.000139670603133991
1 3068 -0.000141639061330425
1 3071 -0.000139700055968098
1 3072 -0.000141286732534576
1 3099 -0.00013967064736256
1 3100 -0.000141638396626583
2 1 0.0
2 2 0.0419834067892812
2 4 0.0
2 5 0.0
2 993 -0.000162064605978737
2 994 -0.000164615581083447
2 997 -0.00666666666666667
2 998 0.0
2 2977 -0.000435069629630582
2 2978 -0.000435069154494977
2 2979 -0.0166666666666667
2 2982 -0.0166666666666667
3 3 0.0133333333333333
3 995 -0.00666666666666667
3 998 -0.00666666666666667
4 1 0.0
4 2 0.0
4 4 0.0255994304135462
4 8 0.0
4 9 0.0
4 995 -0.000435031787535768
4 996 -0.000435066598341387
4 998 0.0
4 1005 -0.00666666666666667
4 2979 -0.000139671085486954
4 2980 -0.000141641486800696
4 2989 -0.0166666666666667
5 2 0.0
5 5 0.0253690283189995
5 997 -0.000435031698814498
5 998 -0.000435066687047
5 999 -0.00666666666666667
5 2981 -0.000141641814770075
5 2982 -0.00013967114230514
5 2983 -0.0166666666666667
6 6 0.031979558900393
6 999 -0.000162091523387944
6 1000 -0.000164750534006633
6 1002 -0.00666666666666667
6 1003 -0.00666666666666667
6 2983 -0.000435068671068379
6 2984 -0.000435070113055706
6 2985 -0.0166666666666667
7 7 0.0333333333333333
7 2986 -0.0166666666666667
7 2987 -0.0166666666666667
8 4 0.0
8 8 0.0320997920666244
8 9 0.0
8 1005 -0.00016206162328982
8 1006 -0.000164601757794207
8 1008 -0.00666666666666667
8 1009 -0.00666666666666667
8 2989 -0.00043506878587024
8 2990 -0.000435069998254331
8 3037 -0.0166666666666667
8 3038 0.0
9 1 0.0
9 4 0.0
9 8 0.0
9 9 0.0292675967555633
9 14 0.0
9 15 0.0
9 17 0.0
9 19 0.0
9 26 0.0
9 1009 -0.000164300067974465
9 1010 -0.000164103118034321
9 1021 -0.000164408450418608
9 1022 -0.000162009019530446
9 1025 -0.000162008946283214
9 1026 -0.000164408477352361
9 1039 -0.00666666666666667
9 2991 -0.00043503373689081
9 2992 -0.000435105043203752
9 3001 -0.000435051982399215
9 3002 -0.000435086800763899
9 3013 -0.000435033290824525
9 3014 -0.000435105489168505
9 3021 -0.0166666666666667
9 3038 0.0
10 10 0.0333333333333333
10 2991 -0.0166666666666667
10 3038 -0.0166666666666667
11 11 0.0238543465439773
11 1011 -0.00666666666666667
11 2993 -0.0166666666666667
12 12 0.0420929664672891
12 14 0.0
12 15 0.0
12 1011 -0.000435040487769459
12 1012 -0.000435057899246222
12 1015 -0.00666666666666667
12 2993 -0.000139670810780983
12 2994 -0.000141640262301834
12 2995 -0.0166666666666667
12 2998 -0.0166666666666667
13 13 0.0133333333333333
13 1013 -0.00666666666666667
13 1016 -0.00666666666666667
14 1 0.0
14 9 0.0
14 12 0.0
14 14 0.0255503077544011
14 15 0.0
14 17 0.0
14 1013 -0.000162127209687436
14 1014 -0.000164582493974597
14 1015 0.0
14 1016 0.0
14 1019 -0.00666666666666667
14 2995 -0.000435069265953868
14 2996 -0.000435069518171819
14 2999 -0.0166666666666667
15 1 0.0
15 9 0.0
15 12 0.0
15 14 0.0
15 15 0.0252823531939237
15 19 0.0
15 20 0.0
15 1015 -0.000166319287245753
15 1016 -0.000166854288422184
15 1027 -0.00666666666666667
15 2997 -0.000140348173477512
15 2998 -0.000140348162575281
15 3007 -0.0166666666666667
16 16 0.0255489774258117
16 17 0.0
16 1017 -0.00666666666666667
16 1023 -0.000162062503890727
16 1024 -0.000164604272365608
16 3003 -0.000435025946733501
16 3004 -0.000435112831393176
16 3005 -0.0166666666666667
17 9 0.0
17 14 0.0
17 16 0.0
17 17 0.0322022752306448
17 1019 -0.000435044292403726
17 1020 -0.000435054094871408
17 1022 -0.00666666666666667
17 1023 -0.00666666666666667
17 2999 -0.000139703533487055
17 3000 -0.000141829183573385
17 3001 -0.0166666666666667
17 3002 0.0
17 3003 0.0
18 18 0.0333333333333333
18 3002 -0.0166666666666667
18 3003 -0.0166666666666667
19 9 0.0
19 15 0.0
19 19 0.0258515188587684
19 20 0.0
19 1025 -0.00666666666666667
19 1031 -0.00043504860388599
19 1032 -0.000435049783507798
19 3011 -0.000140229676531456
19 3012 -0.000140479994479306
19 3013 -0.0166666666666667
20 15 0.0
20 19 0.0
20 20 0.032099747888068
20 1027 -0.000162061922095729
20 1028 -0.000164602266437616
20 1030 -0.00666666666666667
20 1031 -0.00666666666666667
20 3007 -0.000435069341371819
20 3008 -0.000435069442753911
20 3009 -0.0166666666666667
20 3010 0.0
20 3011 0.0
21 21 0.0333333333333333
21 3010 -0.0166666666666667
21 3011 -0.0166666666666667
22 22 0.0255013626659517
22 23 0.0
22 1033 -0.00666666666666667
22 1037 -0.00019279849176054
22 1038 -0.000167240534534016
22 3019 -0.0166666666666667
22 3035 -0.000434490077538829
22 3036 -0.000435647599097353
23 22 0.0
23 23 0.0319967450902398
23 24 0.0
23 1036 -0.00666666666666667
23 1037 -0.00666666666666667
23 1053 -0.000161978982193292
23 1054 -0.000164191969605661
23 3015 -0.000435268249897142
23 3016 -0.000434870408625407
23 3017 -0.0166666666666667
23 3018 0.0
23 3035 0.0
24 23 0.0
24 24 0.0257464062516243
24 26 0.0
24 1041 -0.000413213566066567
24 1042 -0.000454683602340958
24 1044 0.0
24 1053 -0.00666666666666667
24 3015 -0.0166666666666667
24 3023 -0.000139754712611173
24 3024 -0.00014020641557407
25 25 0.0333333333333333
25 3018 -0.0166666666666667
25 3035 -0.0166666666666667
26 9 0.0
26 24 0.0
26 26 0.0421600788316065
26 28 0.0
26 1039 -0.00043581416353757
26 1040 -0.000434281293408232
26 1043 -0.00666666666666667
26 1044 0.0
26 3021 -0.000141165505762468
26 3022 -0.000544658362791339
26 3023 -0.0166666666666667
26 3026 -0.0166666666666667
27 27 0.0133333333333333
27 1041 -0.00666666666666667
27 1044 -0.00666666666666667
28 26 0.0
28 28 0.0250247725514408
28 29 0.0
28 1043 -0.00016309840189745
28 1044 -0.000530165759527253
28 1045 -0.00666666666666667
28 3025 -0.000165095245016433
28 3026 -0.000150451686795304
28 3027 -0.0166666666666667
29 28 0.0
29 29 0.0321784029946047
29 31 0.0
29 1045 -0.000162004211770428
29 1046 -0.000529438965832965
29 1048 -0.00666666666666667
29 1049 -0.00666666666666667
29 3027 -0.000421169644089434
29 3028 -0.000448291096827643
29 3029 -0.0166666666666667
29 3030 0.0
30 30 0.0333333333333333
30 31 0.0
30 3030 -0.0166666666666667
30 3031 -0.0166666666666667
31 29 0.0
31 30 0.0
31 31 0.0252170876990304
31 1049 -0.000163010868628506
31 1050 -0.000164270868470497
31 1051 -0.00666666666666667
31 3030 0.0
31 3031 -0.000435171428458814
31 3032 -0.000434967322589985
31 3033 -0.0166666666666667
32 32 0.0320886759388819
32 33 0.0
32 35 0.0
32 63 0.0
32 70 0.0
32 71 0.0
32 78 0.0
32 82 0.0
32 1055 -0.00666666666666667
32 1131 -0.000435050788864286
32 1132 -0.000435047598518493
32 1141 -0.000435040467082004
32 1142 -0.00043505791993187
32 1153 -0.000435057910263423
32 1154 -0.000435040476751296
32 3039 -0.0166666666666667
32 3129 -0.000139670564073326
32 3130 -0.000141638838042723
32 3133 -0.000139670603963583
32 3134 -0.000141638239923676
32 3161 -0.000139700009140161
32 3162 -0.000141286602860218
33 32 0.0
33 33 0.0419834016282712
33 35 0.0
33 36 0.0
33 1055 -0.000162064640844275
33 1056 -0.000164615755229752
33 1059 -0.00666666666666667
33 3039 -0.000435069730380089
33 3040 -0.000435069053745286
33 3041 -0.0166666666666667
33 3044 -0.0166666666666667
34 34 0.0133333333333333
34 1057 -0.00666666666666667
34 1060 -0.00666666666666667
35 1 0.0
35 32 0.0
35 33 0.0
35 35 0.0255995473964412
35 36 0.0
35 39 0.0
35 40 0.0
35 63 0.0
35 1057 -0.000435030941620315
35 1058 -0.000435067444105677
35 1059 0.0
35 1060 0.0
35 1067 -0.00666666666666667
35 3041 -0.00013967052691555
35 3042 -0.000141638257586788
35 3051 -0.0166666666666667
36 33 0.0
36 35 0.0
36 36 0.0253627459848576
36 37 0.0
36 1059 -0.000435032188115218
36 1060 -0.000435066197830839
36 1061 -0.00666666666666667
36 3043 -0.000141820432945145
36 3044 -0.000139702093156581
36 3045 -0.0166666666666667
37 36 0.0
37 37 0.0319681677869403
37 1061 -0.000162178699975161
37 1062 -0.000165233346068301
37 1064 -0.00666666666666667
37 1065 -0.00666666666666667
37 3045 -0.000435009064920769
37 3046 -0.000435129707573878
37 3047 -0.0166666666666667
38 38 0.0333333333333333
38 3048 -0.0166666666666667
38 3049 -0.0166666666666667
39 1 0.0
39 35 0.0
39 39 0.0320997527624523
39 40 0.0
39 1067 -0.000162061886876159
39 1068 -0.000164602034973987
39 1070 -0.00666666666666667
39 1071 -0.00666666666666667
39 3051 -0.0004350698138905
39 3052 -0.000435068970234673
39 3099 -0.0166666666666667
40 1 0.0
40 35 0.0
40 39 0.0
40 40 0.0292687587508236
40 48 0.0
40 50 0.0
40 57 0.0
40 63 0.0
40 1071 -0.000164092201396151
40 1072 -0.000164092160478588
40 1083 -0.000164325652029393
40 1084 -0.000162006572449318
40 1087 -0.000162006472670696
40 1088 -0.00016432568960712
40 1101 -0.00666666666666667
40 3053 -0.000435063659072025
40 3054 -0.000435075124949578
40 3063 -0.00043504785030952
40 3064 -0.000435090932343969
40 3075 -0.000435057327600383
40 3076 -0.000435081456064144
40 3083 -0.0166666666666667
40 3099 0.0
40 3100 0.0
41 41 0.0333333333333333
41 3053 -0.0166666666666667
41 3100 -0.0166666666666667
42 42 0.0238543465439773
42 43 0.0
42 1073 -0.00666666666666667
42 3055 -0.0166666666666667
43 42 0.0
43 43 0.0420929989771356
43 45 0.0
43 46 0.0
43 48 0.0
43 1073 -0.000435040451026806
43 1074 -0.000435057935985662
43 1077 -0.00666666666666667
43 1078 0.0
43 3055 -0.000139670655296778
43 3056 -0.000141639364432355
43 3057 -0.0166666666666667
43 3060 -0.0166666666666667
44 44 0.0133333333333333
44 1075 -0.00666666666666667
44 1078 -0.00666666666666667
45 43 0.0
45 45 0.0255502685417309
45 48 0.0
45 1075 -0.000162127502447745
45 1076 -0.000164583524873151
45 1078 0.0
45 1081 -0.00666666666666667
45 3057 -0.000435069551479131
45 3058 -0.000435069232646527
45 3061 -0.0166666666666667
46 43 0.0
46 46 0.0252823730509023
46 48 0.0
46 51 0.0
46 1077 -0.000166319284889784
46 1078 -0.000166854283136274
46 1089 -0.00666666666666667
46 3059 -0.000140347813456026
46 3060 -0.00014036797552315
46 3069 -0.0166666666666667
47 1 0.0
47 47 0.0255489363703281
47 48 0.0
47 1079 -0.00666666666666667
47 1085 -0.00016206272818366
47 1086 -0.000164605417097992
47 3064 0.0
47 3065 -0.000435045457437436
47 3066 -0.000435093324868215
47 3067 -0.0166666666666667
48 1 0.0
48 40 0.0
48 43 0.0
48 45 0.0
48 46 0.0
48 47 0.0
48 48 0.0322040616077563
48 50 0.0
48 51 0.0
48 1078 0.0
48 1081 -0.000435041288920689
48 1082 -0.000435057098161678
48 1084 -0.00666666666666667
48 1085 -0.00666666666666667
48 3061 -0.000139694549084838
48 3062 -0.000141777300691703
48 3063 -0.0166666666666667
48 3064 0.0
49 49 0.0333333333333333
49 3064 -0.0166666666666667
49 3065 -0.0166666666666667
50 1 0.0
50 40 0.0
50 48 0.0
50 50 0.0258538650317957
50 51 0.0
50 1087 -0.00666666666666667
50 1093 -0.000435046965633857
50 1094 -0.000435051421736794
50 3071 0.0
50 3072 0.0
50 3073 -0.00014019399872174
50 3074 -0.000140435023641922
50 3075 -0.0166666666666667
51 1 0.0
51 46 0.0
51 48 0.0
51 50 0.0
51 51 0.032099727407434
51 1089 -0.000162062060860401
51 1090 -0.000164602902125367
51 1092 -0.00666666666666667
51 1093 -0.00666666666666667
51 3069 -0.000435069549163964
51 3070 -0.000435069234961696
51 3071 -0.0166666666666667
52 52 0.0333333333333333
52 3072 -0.0166666666666667
52 3073 -0.0166666666666667
53 53 0.0256925653634596
53 54 0.0
53 56 0.0
53 1095 -0.00666666666666667
53 1099 -0.000433952552704485
53 1100 -0.000436139822938484
53 3080 0.0
53 3081 -0.0166666666666667
53 3097 -0.000141084828730742
53 3098 -0.000141568067840571
54 53 0.0
54 54 0.0319726623957349
54 55 0.0
54 1098 -0.00666666666666667
54 1099 -0.00666666666666667
54 1115 -0.00016214675487856
54 1116 -0.000165048028543372
54 3077 -0.000434101287475745
54 3078 -0.000436034461490277
54 3079 -0.0166666666666667
54 3080 0.0
55 54 0.0
55 55 0.025644863761659
55 57 0.0
55 1103 -0.000405342384042105
55 1104 -0.000460809060945839
55 1106 0.0
55 1115 -0.00666666666666667
55 3077 -0.0166666666666667
55 3085 -0.000140739916525858
55 3086 -0.000142759739737579
56 53 0.0
56 56 0.0333333333333333
56 3080 -0.0166666666666667
56 3097 -0.0166666666666667
57 40 0.0
57 55 0.0
57 57 0.0421522789439464
57 59 0.0
57 1101 -0.000436004520088602
57 1102 -0.000434089279817292
57 1105 -0.00666666666666667
57 1106 0.0
57 3083 -0.000141885046454967
57 3084 -0.000548756258214204
57 3085 -0.0166666666666667
57 3088 -0.0166666666666667
58 58 0.0133333333333333
58 1103 -0.00666666666666667
58 1106 -0.00666666666666667
59 57 0.0
59 59 0.0250271632275508
59 60 0.0
59 1105 -0.000163211684871366
59 1106 -0.000529849870720848
59 1107 -0.00666666666666667
59 3087 -0.000159214075622715
59 3088 -0.000147688204700039
59 3089 -0.0166666666666667
60 59 0.0
60 60 0.0321536300563563
60 62 0.0
60 1107 -0.000162715770416371
60 1108 -0.000531931290617637
60 1110 -0.00666666666666667
60 1111 -0.00666666666666667
60 3089 -0.000390248902500897
60 3090 -0.000472748684898519
60 3091 -0.0166666666666667
60 3092 0.0
60 3093 0.0
61 61 0.0333333333333333
61 3092 -0.0166666666666667
61 3093 -0.0166666666666667
62 60 0.0
62 62 0.0251453403201699
62 1111 -0.000162981032279518
62 1112 -0.000167181094192769
62 1113 -0.00666666666666667
62 3093 -0.000405995886601363
62 3094 -0.000461282908632619
62 3095 -0.0166666666666667
63 1 0.0
63 32 0.0
63 35 0.0
63 40 0.0
63 63 0.0312158150516623
63 64 0.0
63 70 0.0
63 101 0.0
63 102 0.0
63 109 0.0
63 110 0.0
63 113 0.0
63 156 0.0
63 280 0.0
63 1117 -0.00666666666666667
63 1193 -0.000164604656267662
63 1194 -0.000162062479874256
63 1203 -0.000162062393641142
63 1204 -0.000164604687174786
63 1215 -0.00016435975808361
63 1216 -0.000164358443024191
63 3101 -0.0166666666666667
63 3191 -0.00043506741194258
63 3192 -0.000435071372170706
63 3195 -0.000161601801934664
63 3196 -0.000162351306455949
63 3223 -0.000435071227105072
63 3224 -0.000435067557009958
64 63 0.0
64 64 0.0420929687910096
64 66 0.0
64 67 0.0
64 70 0.0
64 1117 -0.000435042623242022
64 1118 -0.00043505576393715
64 1121 -0.00666666666666667
64 1122 0.0
64 3101 -0.000139670792138545
64 3102 -0.000141640184766719
64 3103 -0.0166666666666667
64 3106 -0.0166666666666667
65 65 0.0133333333333333
65 1119 -0.00666666666666667
65 1122 -0.00666666666666667
66 64 0.0
66 66 0.0256871015736835
66 70 0.0
66 1119 -0.000435049192464642
66 1120 -0.000435049194930889
66 1122 0.0
66 1129 -0.00666666666666667
66 3103 -0.0001403480836096
66 3104 -0.000140348091728344
66 3113 -0.0166666666666667
67 64 0.0
67 67 0.0252598187185257
67 68 0.0
67 1121 -0.000162062558982798
67 1122 -0.000164605380154927
67 1123 -0.00666666666666667
67 3105 -0.000435069485970577
67 3106 -0.000435069298155133
67 3107 -0.0166666666666667
68 67 0.0
68 68 0.0320929801235649
68 1123 -0.000435040485643464
68 1124 -0.000435057901372032
68 1126 -0.00666666666666667
68 1127 -0.00666666666666667
68 3107 -0.000139670745411717
68 3108 -0.00014163988497522
68 3109 -0.0166666666666667
69 69 0.0333333333333333
69 3110 -0.0166666666666667
69 3111 -0.0166666666666667
70 32 0.0
70 63 0.0
70 64 0.0
70 66 0.0
70 70 0.0320997361127143
70 71 0.0
70 1122 0.0
70 1129 -0.000162062002168695
70 1130 -0.000164602608742394
70 1132 -0.00666666666666667
70 1133 -0.00666666666666667
70 3113 -0.000435069389748936
70 3114 -0.000435069394376802
70 3161 -0.0166666666666667
70 3162 0.0
71 32 0.0
71 70 0.0
71 71 0.0296373133570987
71 78 0.0
71 79 0.0
71 81 0.0
71 82 0.0
71 88 0.0
71 1133 -0.000435047598512344
71 1134 -0.000435050788870434
71 1145 -0.000435057895396635
71 1146 -0.000435040491619382
71 1149 -0.000435040480593905
71 1150 -0.00043505790642115
71 1163 -0.00666666666666667
71 3115 -0.000140178146762425
71 3116 -0.000140415043495099
71 3125 -0.000139670783971902
71 3126 -0.000141639278555754
71 3134 0.0
71 3137 -0.000139670744060082
71 3138 -0.00014163987710368
71 3145 -0.0166666666666667
71 3162 0.0
72 72 0.0333333333333333
72 3115 -0.0166666666666667
72 3162 -0.0166666666666667
73 73 0.0238543465439773
73 74 0.0
73 1135 -0.00666666666666667
73 3117 -0.0166666666666667
74 73 0.0
74 74 0.0419834073423382
74 76 0.0
74 77 0.0
74 1135 -0.000162064603060552
74 1136 -0.000164615562620811
74 1139 -0.00666666666666667
74 1140 0.0
74 3117 -0.000435069391170851
74 3118 -0.000435069392954887
74 3119 -0.0166666666666667
74 3122 -0.0166666666666667
75 75 0.0133333333333333
75 1137 -0.00666666666666667
75 1140 -0.00666666666666667
76 74 0.0
76 76 0.0256582249639076
76 77 0.0
76 79 0.0
76 1137 -0.000435031767332582
76 1138 -0.000435066618541048
76 1140 0.0
76 1143 -0.00666666666666667
76 3119 -0.000139670761471267
76 3120 -0.000141639617585322
76 3123 -0.0166666666666667
77 74 0.0
77 76 0.0
77 77 0.0256868354321435
77 79 0.0
77 82 0.0
77 1139 -0.000435031759872447
77 1140 -0.00043506662599974
77 1151 -0.00666666666666667
77 3121 -0.00014163961990025
77 3122 -0.000139670761872412
77 3131 -0.0166666666666667
78 32 0.0
78 71 0.0
78 78 0.0255642318718435
78 79 0.0
78 82 0.0
78 1141 -0.00666666666666667
78 1147 -0.000164358965526126
78 1148 -0.000164360419602091
78 3125 0.0
78 3126 0.0
78 3127 -0.000435064994003248
78 3128 -0.000435073790061058
78 3129 -0.0166666666666667
79 71 0.0
79 76 0.0
79 77 0.0
79 78 0.0
79 79 0.0320996545778365
79 82 0.0
79 1143 -0.000162062558212559
79 1144 -0.0001646053781638
79 1146 -0.00666666666666667
79 1147 -0.00666666666666667
79 3123 -0.000435069391157123
79 3124 -0.000435069392968615
79 3125 -0.0166666666666667
80 80 0.0333333333333333
80 3126 -0.0166666666666667
80 3127 -0.0166666666666667
81 71 0.0
81 81 0.0256786742296025
81 82 0.0
81 1149 -0.00666666666666667
81 1155 -0.000164358958283311
81 1156 -0.000164360412981448
81 3134 0.0
81 3135 -0.000435064995135525
81 3136 -0.000435073788928812
81 3137 -0.0166666666666667
82 32 0.0
82 71 0.0
82 77 0.0
82 78 0.0
82 79 0.0
82 81 0.0
82 82 0.0320996544124479
82 1151 -0.000162062559344
82 1152 -0.000164605383792317
82 1154 -0.00666666666666667
82 1155 -0.00666666666666667
82 3131 -0.000435069390409401
82 3132 -0.000435069393716337
82 3133 -0.0166666666666667
82 3134 0.0
83 83 0.0333333333333333
83 3134 -0.0166666666666667
83 3135 -0.0166666666666667
84 84 0.0256614590292302
84 85 0.0
84 1157 -0.00666666666666667
84 1161 -0.00043504078218399
84 1162 -0.000435057604856948
84 3143 -0.0166666666666667
84 3159 -0.000139674680709097
84 3160 -0.000141584640574233
85 84 0.0
85 85 0.0319837098823798
85 86 0.0
85 1160 -0.00666666666666667
85 1161 -0.00666666666666667
85 1177 -0.000162062535484639
85 1178 -0.00016460526496674
85 3139 -0.000435069391187605
85 3140 -0.000435069392938133
85 3141 -0.0166666666666667
85 3142 0.0
85 3159 0.0
86 85 0.0
86 86 0.0256582249673321
86 88 0.0
86 1165 -0.000435031767264953
86 1166 -0.000435066618608665
86 1168 0.0
86 1177 -0.00666666666666667
86 3139 -0.0166666666666667
86 3147 -0.000139670761455126
86 3148 -0.000141639617491159
87 87 0.0333333333333333
87 3142 -0.0166666666666667
87 3159 -0.0166666666666667
88 71 0.0
88 86 0.0
88 88 0.0419834073415166
88 90 0.0
88 1163 -0.000162064603067295
88 1164 -0.000164615562649188
88 1167 -0.00666666666666667
88 1168 0.0
88 3145 -0.000435069390872567
88 3146 -0.000435069393253171
88 3147 -0.0166666666666667
88 3150 -0.0166666666666667
89 89 0.0133333333333333
89 1165 -0.00666666666666667
89 1168 -0.00666666666666667
90 88 0.0
90 90 0.0253691078098052
90 91 0.0
90 1167 -0.000435031759867127
90 1168 -0.000435066626005059
90 1169 -0.00666666666666667
90 3149 -0.000141639617495969
90 3150 -0.00013967076145596
90 3151 -0.0166666666666667
91 90 0.0
91 91 0.0319837098823801
91 93 0.0
91 1169 -0.000162062535484643
91 1170 -0.000164605264966733
91 1172 -0.00666666666666667
91 1173 -0.00666666666666667
91 3151 -0.000435069391186034
91 3152 -0.000435069392939704
91 3153 -0.0166666666666667
91 3154 0.0
91 3155 0.0
92 92 0.0333333333333333
92 3154 -0.0166666666666667
92 3155 -0.0166666666666667
93 91 0.0
93 93 0.0253136149492918
93 1173 -0.000435040782184005
93 1174 -0.000435057604856933
93 1175 -0.00666666666666667
93 3155 -0.000139674680709096
93 3156 -0.000141584640574229
93 3157 -0.0166666666666667
94 94 0.0312157552277102
94 95 0.0
94 101 0.0
94 125 0.0
94 132 0.0
94 133 0.0
94 140 0.0
94 143 0.0
94 144 0.0
94 1179 -0.00666666666666667
94 1255 -0.00016460526653446
94 1256 -0.000162062530200907
94 1265 -0.00016206251926764
94 1266 -0.000164605270453124
94 1277 -0.000164360315553491
94 1278 -0.00016435888783596
94 3163 -0.0166666666666667
94 3253 -0.000435068868942317
94 3254 -0.000435069915182552
94 3257 -0.000161601725677974
94 3258 -0.000162351498594984
94 3285 -0.000435071725054391
94 3286 -0.000435067059054058
95 94 0.0
95 95 0.0420929694350214
95 97 0.0
95 98 0.0
95 101 0.0
95 1179 -0.00043504097887694
95 1180 -0.000435057408180387
95 1183 -0.00666666666666667
95 1184 0.0
95 3163 -0.00013967079478487
95 3164 -0.000141640177118637
95 3165 -0.0166666666666667
95 3168 -0.0166666666666667
96 96 0.0133333333333333
96 1181 -0.00666666666666667
96 1184 -0.00666666666666667
97 95 0.0
97 97 0.0254915570467123
97 101 0.0
97 1181 -0.000162127387652293
97 1182 -0.000164583145431396
97 1184 0.0
97 1191 -0.00666666666666667
97 3165 -0.000435069295710136
97 3166 -0.000435069488415573
97 3175 -0.0166666666666667
98 95 0.0
98 98 0.0249645634044841
98 99 0.0
98 1183 -0.000166319270517048
98 1184 -0.000166854266113373
98 1185 -0.00666666666666667
98 3167 -0.000140349307522104
98 3168 -0.000140349299171436
98 3169 -0.0166666666666667
99 98 0.0
99 99 0.0319795589138205
99 1185 -0.000162091523336998
99 1186 -0.000164750533613685
99 1188 -0.00666666666666667
99 1189 -0.00666666666666667
99 3169 -0.000435068659479092
99 3170 -0.00043507012464494
99 3171 -0.0166666666666667
100 100 0.0333333333333333
100 3172 -0.0166666666666667
100 3173 -0.0166666666666667
101 63 0.0
101 94 0.0
101 95 0.0
101 97 0.0
101 101 0.0322057822807788
101 102 0.0
101 125 0.0
101 156 0.0
101 1191 -0.00043504227863408
101 1192 -0.000435056108521799
101 1194 -0.00666666666666667
101 1195 -0.00666666666666667
101 3175 -0.000139686009556357
101 3176 -0.000141728010347423
101 3223 -0.0166666666666667
102 63 0.0
102 101 0.0
102 102 0.0286987467725143
102 109 0.0
102 110 0.0
102 112 0.0
102 113 0.0
102 119 0.0
102 156 0.0
102 280 0.0
102 1195 -0.000162006162226948
102 1196 -0.000164398193103689
102 1207 -0.000164089877343614
102 1208 -0.00016474036081659
102 1211 -0.000162006191893171
102 1212 -0.000164398182178322
102 1225 -0.00666666666666667
102 3177 -0.000435039396134656
102 3178 -0.00043509938513865
102 3187 -0.000161678337891912
102 3188 -0.000162422470311612
102 3196 0.0
102 3199 -0.000435031309394907
102 3200 -0.00043510747013236
102 3207 -0.0166666666666667
102 3223 0.0
102 3224 0.0
103 103 0.0333333333333333
103 3177 -0.0166666666666667
103 3224 -0.0166666666666667
104 104 0.0238543465439773
104 105 0.0
104 1197 -0.00666666666666667
104 3179 -0.0166666666666667
105 104 0.0
105 105 0.0419834078568206
105 107 0.0
105 108 0.0
105 110 0.0
105 113 0.0
105 1197 -0.000162064599546256
105 1198 -0.000164615545095071
105 1201 -0.00666666666666667
105 1202 0.0
105 3179 -0.000435069389255754
105 3180 -0.000435069394869984
105 3181 -0.0166666666666667
105 3184 -0.0166666666666667
106 106 0.0133333333333333
106 1199 -0.00666666666666667
106 1202 -0.00666666666666667
107 105 0.0
107 107 0.0256580957796501
107 110 0.0
107 1199 -0.000435031818763032
107 1200 -0.000435066567119567
107 1202 0.0
107 1205 -0.00666666666666667
107 3181 -0.000139671380124093
107 3182 -0.000141643188367999
107 3185 -0.0166666666666667
108 105 0.0
108 108 0.0256868273049125
108 113 0.0
108 1201 -0.000435031752461292
108 1202 -0.0004350666334096
108 1213 -0.00666666666666667
108 3183 -0.000141639844172889
108 3184 -0.000139670800627355
108 3193 -0.0166666666666667
109 63 0.0
109 102 0.0
109 109 0.0256611955308474
109 110 0.0
109 1203 -0.00666666666666667
109 1209 -0.000435063218164074
109 1210 -0.000435035168245857
109 3187 0.0
109 3188 0.0
109 3189 -0.000139675704206962
109 3190 -0.000141591382930956
109 3191 -0.0166666666666667
110 63 0.0
110 102 0.0
110 105 0.0
110 107 0.0
110 109 0.0
110 110 0.032099923319321
110 113 0.0
110 1202 0.0
110 1205 -0.00016206073198596
110 1206 -0.000164598252833557
110 1208 -0.00666666666666667
110 1209 -0.00666666666666667
110 3185 -0.000435068235431626
110 3186 -0.000435070548689864
110 3187 -0.0166666666666667
111 111 0.0333333333333333
111 3188 -0.0166666666666667
111 3189 -0.0166666666666667
112 102 0.0
112 112 0.0257716863609747
112 113 0.0
112 1211 -0.00666666666666667
112 1217 -0.000435042369262491
112 1218 -0.000435056017899628
112 3196 0.0
112 3197 -0.000139695639988151
112 3198 -0.00014170162614754
112 3199 -0.0166666666666667
113 63 0.0
113 102 0.0
113 105 0.0
113 108 0.0
113 110 0.0
113 112 0.0
113 113 0.0320996765524547
113 1202 0.0
113 1213 -0.000162062408593517
113 1214 -0.000164604734980543
113 1216 -0.00666666666666667
113 1217 -0.00666666666666667
113 3193 -0.000435069317670581
113 3194 -0.00043506946645514
113 3195 -0.0166666666666667
113 3196 0.0
114 114 0.0333333333333333
114 3196 -0.0166666666666667
114 3197 -0.0166666666666667
115 115 0.025501362664455
115 116 0.0
115 1219 -0.00666666666666667
115 1223 -0.000192798550395761
115 1224 -0.000167240534661016
115 3205 -0.0166666666666667
115 3221 -0.000434490077563752
115 3222 -0.000435647599072525
116 115 0.0
116 116 0.0319967451293014
116 117 0.0
116 1222 -0.00666666666666667
116 1223 -0.00666666666666667
116 1239 -0.000161978982117799
116 1240 -0.000164191968508161
116 3201 -0.000435268203178909
116 3202 -0.000434870455402754
116 3203 -0.0166666666666667
116 3204 0.0
116 3221 0.0
117 116 0.0
117 117 0.0257463974004799
117 119 0.0
117 120 0.0
117 1227 -0.000413213785008022
117 1228 -0.000454683425554907
117 1230 0.0
117 1239 -0.00666666666666667
117 3201 -0.0166666666666667
117 3209 -0.000139754726222279
117 3210 -0.00014020654051962
118 118 0.0333333333333333
118 3204 -0.0166666666666667
118 3221 -0.0166666666666667
119 102 0.0
119 117 0.0
119 119 0.0421600707339389
119 121 0.0
119 1225 -0.000435853333051192
119 1226 -0.000434241817036211
119 1229 -0.00666666666666667
119 1230 0.0
119 3207 -0.000141165531303238
119 3208 -0.000544660594244451
119 3209 -0.0166666666666667
119 3212 -0.0166666666666667
120 117 0.0
120 120 0.0133333333333333
120 1227 -0.00666666666666667
120 1230 -0.00666666666666667
121 119 0.0
121 121 0.0250247683829405
121 122 0.0
121 1229 -0.000163098438357505
121 1230 -0.000530165770547248
121 1231 -0.00666666666666667
121 3211 -0.000165095492820406
121 3212 -0.000150450799069273
121 3213 -0.0166666666666667
122 121 0.0
122 122 0.032178402980707
122 124 0.0
122 1231 -0.000162004212070115
122 1232 -0.000529438965863179
122 1234 -0.00666666666666667
122 1235 -0.00666666666666667
122 3213 -0.000421169440873413
122 3214 -0.00044829128031459
122 3215 -0.0166666666666667
122 3216 0.0
123 123 0.0333333333333333
123 124 0.0
123 3216 -0.0166666666666667
123 3217 -0.0166666666666667
124 122 0.0
124 123 0.0
124 124 0.025217087702088
124 1235 -0.000163010868918803
124 1236 -0.000164270868404786
124 1237 -0.00666666666666667
124 3216 0.0
124 3217 -0.000435171428461129
124 3218 -0.000434967322587668
124 3219 -0.0166666666666667
125 94 0.0
125 101 0.0
125 125 0.0312157364394618
125 126 0.0
125 128 0.0
125 132 0.0
125 133 0.0
125 156 0.0
125 159 0.0
125 163 0.0
125 164 0.0
125 171 0.0
125 174 0.0
125 175 0.0
125 1241 -0.00666666666666667
125 1317 -0.000164360411104607
125 1318 -0.000164359007307862
125 1327 -0.000162062559033916
125 1328 -0.000164605382254267
125 1339 -0.000164605382251115
125 1340 -0.000162062559042711
125 3225 -0.0166666666666667
125 3315 -0.000435069391108215
125 3316 -0.000435069393017523
125 3319 -0.000435069390272271
125 3320 -0.000435069393853468
125 3347 -0.000161601720191614
125 3348 -0.000162351552424591
126 125 0.0
126 126 0.0420929781177558
126 128 0.0
126 129 0.0
126 1241 -0.000435040481081573
126 1242 -0.000435057905933524
126 1245 -0.00666666666666667
126 1246 0.0
126 3225 -0.000139670755029073
126 3226 -0.000141639940417128
126 3227 -0.0166666666666667
126 3230 -0.0166666666666667
127 127 0.0133333333333333
127 128 0.0
127 1243 -0.00666666666666667
127 1246 -0.00666666666666667
128 125 0.0
128 126 0.0
128 127 0.0
128 128 0.0254915410590286
128 132 0.0
128 1243 -0.000162127507324804
128 1244 -0.000164583632044819
128 1246 0.0
128 1253 -0.00666666666666667
128 3227 -0.000435069370632784
128 3228 -0.000435069413492953
128 3237 -0.0166666666666667
129 126 0.0
129 129 0.0249645180764927
129 130 0.0
129 1245 -0.000166319256859904
129 1246 -0.000166854250172961
129 1247 -0.00666666666666667
129 3229 -0.000140350151817308
129 3230 -0.000140350134684648
129 3231 -0.0166666666666667
130 129 0.0
130 130 0.0319784847376137
130 1247 -0.000162099247952961
130 1248 -0.000164789516502383
130 1250 -0.00666666666666667
130 1251 -0.00666666666666667
130 3231 -0.000435068157528116
130 3232 -0.000435070626592774
130 3233 -0.0166666666666667
131 131 0.0333333333333333
131 3234 -0.0166666666666667
131 3235 -0.0166666666666667
132 94 0.0
132 125 0.0
132 128 0.0
132 132 0.0322084822393016
132 133 0.0
132 1253 -0.000435040909817441
132 1254 -0.000435057477234175
132 1256 -0.00666666666666667
132 1257 -0.00666666666666667
132 3237 -0.000139672882575824
132 3238 -0.000141652224900245
132 3285 -0.0166666666666667
133 94 0.0
133 125 0.0
133 132 0.0
133 133 0.0286738419021207
133 140 0.0
133 141 0.0
133 143 0.0
133 144 0.0
133 150 0.0
133 1257 -0.00016205936532354
133 1258 -0.000164612123412716
133 1269 -0.000164369437450746
133 1270 -0.000164344328728707
133 1273 -0.000162059379398541
133 1274 -0.000164612118388109
133 1287 -0.00666666666666667
133 3239 -0.000435063160018721
133 3240 -0.000435075623983676
133 3249 -0.000161605811424037
133 3250 -0.000162355789101948
133 3261 -0.000435061149026494
133 3262 -0.00043507763488345
133 3269 -0.0166666666666667
133 3285 0.0
133 3286 0.0
134 134 0.0333333333333333
134 3239 -0.0166666666666667
134 3286 -0.0166666666666667
135 135 0.0238543465439773
135 1259 -0.00666666666666667
135 3241 -0.0166666666666667
136 136 0.0419834075447891
136 138 0.0
136 139 0.0
136 1259 -0.000162064601680788
136 1260 -0.000164615555733905
136 1263 -0.00666666666666667
136 3241 -0.000435069389648734
136 3242 -0.000435069394477004
136 3243 -0.0166666666666667
136 3246 -0.0166666666666667
137 137 0.0133333333333333
137 1261 -0.00666666666666667
137 1264 -0.00666666666666667
138 136 0.0
138 138 0.0256581825663056
138 139 0.0
138 141 0.0
138 1261 -0.000435031792976919
138 1262 -0.000435066592901186
138 1263 0.0
138 1264 0.0
138 1267 -0.00666666666666667
138 3243 -0.000139670964419093
138 3244 -0.00014164078895222
138 3247 -0.0166666666666667
139 136 0.0
139 138 0.0
139 139 0.0256868309172346
139 141 0.0
139 144 0.0
139 1263 -0.000435031751019518
139 1264 -0.000435066634851122
139 1275 -0.00666666666666667
139 3245 -0.00014163974452508
139 3246 -0.000139670783426588
139 3255 -0.0166666666666667
140 94 0.0
140 133 0.0
140 140 0.0256614027694726
140 141 0.0
140 144 0.0
140 1265 -0.00666666666666667
140 1271 -0.000435044237783257
140 1272 -0.000435054149489181
140 3249 0.0
140 3250 0.0
140 3251 -0.000139674971988557
140 3252 -0.000141586201352507
140 3253 -0.0166666666666667
141 133 0.0
141 138 0.0
141 139 0.0
141 140 0.0
141 141 0.0320997009695584
141 144 0.0
141 1267 -0.000162062243310157
141 1268 -0.000164604700854508
141 1270 -0.00666666666666667
141 1271 -0.00666666666666667
141 3247 -0.000435069015984241
141 3248 -0.000435069768141048
141 3249 -0.0166666666666667
142 142 0.0333333333333333
142 3250 -0.0166666666666667
142 3251 -0.0166666666666667
143 94 0.0
143 133 0.0
143 143 0.0257749746704468
143 144 0.0
143 1273 -0.00666666666666667
143 1279 -0.000435041264130012
143 1280 -0.000435057122950394
143 3257 0.0
143 3258 0.0
143 3259 -0.000139679244153133
143 3260 -0.000141610020722497
143 3261 -0.0166666666666667
144 94 0.0
144 133 0.0
144 139 0.0
144 140 0.0
144 141 0.0
144 143 0.0
144 144 0.0320996637608071
144 1275 -0.000162062495727046
144 1276 -0.000164605146051558
144 1278 -0.00666666666666667
144 1279 -0.00666666666666667
144 3255 -0.000435069350378355
144 3256 -0.000435069433747378
144 3257 -0.0166666666666667
145 145 0.0333333333333333
145 3258 -0.0166666666666667
145 3259 -0.0166666666666667
146 146 0.025564983772372
146 147 0.0
146 149 0.0
146 1281 -0.00666666666666667
146 1285 -0.000163017068240428
146 1286 -0.000164269850461446
146 3266 0.0
146 3267 -0.0166666666666667
146 3283 -0.000435171466645126
146 3284 -0.000434967284379077
147 146 0.0
147 147 0.0321778215180336
147 148 0.0
147 1284 -0.00666666666666667
147 1285 -0.00666666666666667
147 1301 -0.000162013975253551
147 1302 -0.000529428370426132
147 3263 -0.000415397337630781
147 3264 -0.000453392799083327
147 3265 -0.0166666666666667
147 3266 0.0
148 147 0.0
148 148 0.0258308431809458
148 150 0.0
148 1289 -0.000317388619046037
148 1290 -0.000506658534832259
148 1301 -0.00666666666666667
148 3263 -0.0166666666666667
148 3271 -0.000482519288981586
148 3272 -0.000375083574717954
149 146 0.0
149 149 0.0333333333333333
149 3266 -0.0166666666666667
149 3283 -0.0166666666666667
150 133 0.0
150 148 0.0
150 150 0.0421914017926216
150 151 0.0
150 152 0.0
150 1287 -0.000435073828677985
150 1288 -0.000435024555678503
150 1289 0.0
150 1291 -0.00666666666666667
150 1292 0.0
150 3269 -0.000139361332584411
150 3270 -0.000139853947917575
150 3271 -0.0166666666666667
150 3274 -0.0166666666666667
151 150 0.0
151 151 0.0133333333333333
151 1289 -0.00666666666666667
151 1292 -0.00666666666666667
152 150 0.0
152 152 0.0251983574296692
152 153 0.0
152 1291 -0.000163033789441225
152 1292 -0.000528851957602918
152 1293 -0.00666666666666667
152 3273 -0.000143207812762677
152 3274 -0.000199761155404034
152 3275 -0.0166666666666667
153 152 0.0
153 153 0.0319960855039494
153 155 0.0
153 1293 -0.000161988418356936
153 1294 -0.000164212922403823
153 1296 -0.00666666666666667
153 1297 -0.00666666666666667
153 3275 -0.00043360377620671
153 3276 -0.00043652804569405
153 3277 -0.0166666666666667
153 3278 0.0
153 3279 0.0
154 154 0.0333333333333333
154 3278 -0.0166666666666667
154 3279 -0.0166666666666667
155 153 0.0
155 155 0.0251635090367437
155 1297 -0.00019223121861142
155 1298 -0.000166616012215181
155 1299 -0.00666666666666667
155 3279 -0.000434603197488181
155 3280 -0.000435534875266555
155 3281 -0.0166666666666667
156 63 0.0
156 101 0.0
156 102 0.0
156 125 0.0
156 156 0.0312157284528268
156 157 0.0
156 159 0.0
156 187 0.0
156 190 0.0
156 194 0.0
156 195 0.0
156 202 0.0
156 205 0.0
156 206 0.0
156 280 0.0
156 1303 -0.00666666666666667
156 1379 -0.000164605497784445
156 1380 -0.000162062563985841
156 1389 -0.000162062576485604
156 1390 -0.000164605493304322
156 1401 -0.000164360523631991
156 1402 -0.000164359098316623
156 3287 -0.0166666666666667
156 3377 -0.000435069368728934
156 3378 -0.000435069415396802
156 3381 -0.000161601688606438
156 3382 -0.000162351530879916
156 3409 -0.000435071708554151
156 3410 -0.000435067075554543
157 156 0.0
157 157 0.0420929803448919
157 159 0.0
157 160 0.0
157 1303 -0.000435040249760508
157 1304 -0.00043505813723412
157 1307 -0.00666666666666667
157 3287 -0.000139670745136767
157 3288 -0.000141639880244726
157 3289 -0.0166666666666667
157 3292 -0.0166666666666667
158 158 0.0133333333333333
158 159 0.0
158 1305 -0.00666666666666667
158 1308 -0.00666666666666667
159 125 0.0
159 156 0.0
159 157 0.0
159 158 0.0
159 159 0.0256871018283196
159 160 0.0
159 163 0.0
159 164 0.0
159 1305 -0.000435049192418393
159 1306 -0.000435049194977138
159 1307 0.0
159 1308 0.0
159 1315 -0.00666666666666667
159 3289 -0.000140348087747313
159 3290 -0.00014034808798195
159 3299 -0.0166666666666667
160 157 0.0
160 159 0.0
160 160 0.0252598186653137
160 161 0.0
160 1307 -0.000162062559002505
160 1308 -0.000164605381839702
160 1309 -0.00666666666666667
160 3291 -0.000435069394684115
160 3292 -0.000435069389441623
160 3293 -0.0166666666666667
161 160 0.0
161 161 0.0320929801358365
161 1309 -0.000435040481539035
161 1310 -0.000435057905476102
161 1312 -0.00666666666666667
161 1313 -0.00666666666666667
161 3293 -0.000139670745366996
161 3294 -0.000141639884660972
161 3295 -0.0166666666666667
162 162 0.0333333333333333
162 3296 -0.0166666666666667
162 3297 -0.0166666666666667
163 125 0.0
163 159 0.0
163 163 0.0320996579150383
163 164 0.0
163 1315 -0.000162062535444856
163 1316 -0.000164605264762882
163 1318 -0.00666666666666667
163 1319 -0.00666666666666667
163 3299 -0.000435069390858171
163 3300 -0.000435069393267567
163 3347 -0.0166666666666667
164 125 0.0
164 159 0.0
164 163 0.0
164 164 0.0295485029250619
164 171 0.0
164 172 0.0
164 174 0.0
164 175 0.0
164 181 0.0
164 1319 -0.000435040782704709
164 1320 -0.000435057604336272
164 1331 -0.000435050784143274
164 1332 -0.00043504760323958
164 1335 -0.000435040480204223
164 1336 -0.000435057906810798
164 1349 -0.00666666666666667
164 3301 -0.000139674686768931
164 3302 -0.000141584559768768
164 3311 -0.00013970019805029
164 3312 -0.000141287467726875
164 3323 -0.000139670743899567
164 3324 -0.000141639876171704
164 3331 -0.0166666666666667
164 3347 0.0
164 3348 0.0
165 165 0.0333333333333333
165 3301 -0.0166666666666667
165 3348 -0.0166666666666667
166 166 0.0238543465439773
166 1321 -0.00666666666666667
166 3303 -0.0166666666666667
167 167 0.042092980445436
167 169 0.0
167 170 0.0
167 1321 -0.000435040480198236
167 1322 -0.000435057906816784
167 1325 -0.00666666666666667
167 1326 0.0
167 3303 -0.000139670743889801
167 3304 -0.00014163987611525
167 3305 -0.0166666666666667
167 3308 -0.0166666666666667
168 168 0.0133333333333333
168 169 0.0
168 1323 -0.00666666666666667
168 1326 -0.00666666666666667
169 167 0.0
169 168 0.0
169 169 0.025745828784933
169 170 0.0
169 172 0.0
169 1323 -0.000435049192309392
169 1324 -0.00043504919508614
169 1326 0.0
169 1329 -0.00666666666666667
169 3305 -0.000140348087304844
169 3306 -0.000140348087380234
169 3309 -0.0166666666666667
170 167 0.0
170 169 0.0
170 170 0.0255775463582342
170 172 0.0
170 175 0.0
170 1325 -0.000162062559108484
170 1326 -0.000164605382375201
170 1337 -0.00666666666666667
170 3307 -0.000435069392936428
170 3308 -0.00043506939118931
170 3317 -0.0166666666666667
171 125 0.0
171 164 0.0
171 171 0.0257404831787952
171 172 0.0
171 175 0.0
171 1327 -0.00666666666666667
171 1333 -0.000435047603239579
171 1334 -0.000435050784143275
171 3312 0.0
171 3313 -0.000140178145665099
171 3314 -0.000140415043450979
171 3315 -0.0166666666666667
172 164 0.0
172 169 0.0
172 170 0.0
172 171 0.0
172 172 0.0320997361628787
172 175 0.0
172 1329 -0.000162062001821162
172 1330 -0.000164602607031999
172 1332 -0.00666666666666667
172 1333 -0.00666666666666667
172 3309 -0.000435069391192276
172 3310 -0.000435069392933462
172 3311 -0.0166666666666667
172 3312 0.0
173 173 0.0333333333333333
173 3312 -0.0166666666666667
173 3313 -0.0166666666666667
174 125 0.0
174 164 0.0
174 174 0.0256633780151171
174 175 0.0
174 1335 -0.00666666666666667
174 1341 -0.000162062559115394
174 1342 -0.000164605382612442
174 3319 0.0
174 3320 0.0
174 3321 -0.000435069390212755
174 3322 -0.000435069393912983
174 3323 -0.0166666666666667
175 125 0.0
175 164 0.0
175 170 0.0
175 171 0.0
175 172 0.0
175 174 0.0
175 175 0.0322089281648141
175 1337 -0.00043504048019912
175 1338 -0.000435057906815901
175 1340 -0.00666666666666667
175 1341 -0.00666666666666667
175 3317 -0.000139670745360697
175 3318 -0.000141639884605172
175 3319 -0.0166666666666667
176 176 0.0333333333333333
176 3320 -0.0166666666666667
176 3321 -0.0166666666666667
177 177 0.0256614590292298
177 178 0.0
177 1343 -0.00666666666666667
177 1347 -0.000435040782183968
177 1348 -0.00043505760485697
177 3329 -0.0166666666666667
177 3345 -0.000139674680709099
177 3346 -0.000141584640574244
178 177 0.0
178 178 0.0319837098823795
178 179 0.0
178 1346 -0.00666666666666667
178 1347 -0.00666666666666667
178 1363 -0.000162062535484636
178 1364 -0.00016460526496675
178 3325 -0.000435069391188922
178 3326 -0.000435069392936816
178 3327 -0.0166666666666667
178 3328 0.0
178 3345 0.0
179 178 0.0
179 179 0.0256582249675047
179 181 0.0
179 1351 -0.000435031767249102
179 1352 -0.000435066618624513
179 1354 0.0
179 1363 -0.00666666666666667
179 3325 -0.0166666666666667
179 3333 -0.000139670761454459
179 3334 -0.000141639617486673
180 180 0.0333333333333333
180 3328 -0.0166666666666667
180 3345 -0.0166666666666667
181 164 0.0
181 179 0.0
181 181 0.0419834073409681
181 183 0.0
181 1349 -0.000162064603069931
181 1350 -0.0001646155626675
181 1353 -0.00666666666666667
181 1354 0.0
181 3331 -0.000435069391170656
181 3332 -0.000435069392955082
181 3333 -0.0166666666666667
181 3336 -0.0166666666666667
182 182 0.0133333333333333
182 1351 -0.00666666666666667
182 1354 -0.00666666666666667
183 181 0.0
183 183 0.0253691078101503
183 184 0.0
183 1353 -0.000435031759837616
183 1354 -0.000435066626034565
183 1355 -0.00666666666666667
183 3335 -0.000141639617486715
183 3336 -0.000139670761454466
183 3337 -0.0166666666666667
184 183 0.0
184 184 0.0319837098823795
184 186 0.0
184 1355 -0.000162062535484636
184 1356 -0.00016460526496675
184 1358 -0.00666666666666667
184 1359 -0.00666666666666667
184 3337 -0.000435069391188908
184 3338 -0.00043506939293683
184 3339 -0.0166666666666667
184 3340 0.0
184 3341 0.0
185 185 0.0333333333333333
185 3340 -0.0166666666666667
185 3341 -0.0166666666666667
186 184 0.0
186 186 0.0253136149492912
186 1359 -0.000435040782183969
186 1360 -0.000435057604856969
186 1361 -0.00666666666666667
186 3341 -0.000139674680709099
186 3342 -0.000141584640574244
186 3343 -0.0166666666666667
187 156 0.0
187 187 0.0312154838512909
187 188 0.0
187 190 0.0
187 195 0.0
187 218 0.0
187 221 0.0
187 225 0.0
187 226 0.0
187 233 0.0
187 234 0.0
187 237 0.0
187 249 0.0
187 280 0.0
187 1365 -0.00666666666666667
187 1441 -0.000164363072970948
187 1442 -0.000164592544349164
187 1451 -0.000162063129702431
187 1452 -0.000164608241410743
187 1463 -0.00016460824295276
187 1464 -0.000162063125398168
187 3349 -0.0166666666666667
187 3436 0.0
187 3439 -0.000435070897570947
187 3440 -0.000435067886547593
187 3443 -0.000435070355283277
187 3444 -0.000435068428839514
187 3471 -0.000161599193400745
187 3472 -0.000162350867043699
188 187 0.0
188 188 0.0420359769758308
188 190 0.0
188 191 0.0
188 1365 -0.000435033689603805
188 1366 -0.000435064696586663
188 1369 -0.00666666666666667
188 3349 -0.00014002522715722
188 3350 -0.000143700853603788
188 3351 -0.0166666666666667
188 3354 -0.0166666666666667
189 189 0.0133333333333333
189 190 0.0
189 1367 -0.00666666666666667
189 1370 -0.00666666666666667
190 156 0.0
190 187 0.0
190 188 0.0
190 189 0.0
190 190 0.0254927196052618
190 191 0.0
190 194 0.0
190 195 0.0
190 1367 -0.000162162554053133
190 1368 -0.000164556192142979
190 1369 0.0
190 1370 0.0
190 1377 -0.00666666666666667
190 3351 -0.00043439713866767
190 3352 -0.000435740193435874
190 3361 -0.0166666666666667
191 188 0.0
191 190 0.0
191 191 0.0251692612175913
191 192 0.0
191 1369 -0.000163092637467959
191 1370 -0.000163377020705578
191 1371 -0.00666666666666667
191 3353 -0.000435888399868573
191 3354 -0.000434248105255363
191 3355 -0.0166666666666667
192 191 0.0
192 192 0.031896239204641
192 1371 -0.000415446954693721
192 1372 -0.000452858816762892
192 1374 -0.00666666666666667
192 1375 -0.00666666666666667
192 3355 -0.000142766725250475
192 3356 -0.000158331602080537
192 3357 -0.0166666666666667
193 193 0.0333333333333333
193 3358 -0.0166666666666667
193 3359 -0.0166666666666667
194 156 0.0
194 190 0.0
194 194 0.0322093262366704
194 195 0.0
194 1377 -0.000435082932504863
194 1378 -0.000435015449187737
194 1380 -0.00666666666666667
194 1381 -0.00666666666666667
194 3361 -0.000139668701380673
194 3362 -0.000141628653565274
194 3409 -0.0166666666666667
195 156 0.0
195 187 0.0
195 190 0.0
195 194 0.0
195 195 0.0286700106542116
195 202 0.0
195 203 0.0
195 205 0.0
195 206 0.0
195 212 0.0
195 1381 -0.000162067963173172
195 1382 -0.000164635999950897
195 1393 -0.000164390239995456
195 1394 -0.000164384780603813
195 1397 -0.000162067974342573
195 1398 -0.000164635995970298
195 1411 -0.00666666666666667
195 3363 -0.000435070871110832
195 3364 -0.000435067913007957
195 3373 -0.000161594071152452
195 3374 -0.000162344730250092
195 3385 -0.000435069784091323
195 3386 -0.000435069000033927
195 3393 -0.0166666666666667
195 3409 0.0
195 3410 0.0
196 196 0.0333333333333333
196 3363 -0.0166666666666667
196 3410 -0.0166666666666667
197 197 0.0238543465439773
197 1383 -0.00666666666666667
197 3365 -0.0166666666666667
198 198 0.041983407381513
198 200 0.0
198 201 0.0
198 203 0.0
198 206 0.0
198 1383 -0.000162064602794512
198 1384 -0.00016461556129211
198 1387 -0.00666666666666667
198 1388 0.0
198 3365 -0.000435069390650039
198 3366 -0.000435069393475699
198 3367 -0.0166666666666667
198 3370 -0.0166666666666667
199 199 0.0133333333333333
199 1385 -0.00666666666666667
199 1388 -0.00666666666666667
200 198 0.0
200 200 0.0256582188293747
200 203 0.0
200 1385 -0.000435031773851334
200 1386 -0.000435066612023434
200 1388 0.0
200 1391 -0.00666666666666667
200 3367 -0.000139670790826867
200 3368 -0.000141639787000618
200 3371 -0.0166666666666667
201 198 0.0
201 201 0.0256868342262811
201 206 0.0
201 1387 -0.000435031756377946
201 1388 -0.00043506662949363
201 1399 -0.00666666666666667
201 3369 -0.000141639653189467
201 3370 -0.000139670767633548
201 3379 -0.0166666666666667
202 156 0.0
202 195 0.0
202 202 0.0256614658944893
202 203 0.0
202 206 0.0
202 1389 -0.00666666666666667
202 1395 -0.000435039866684629
202 1396 -0.000435058520274922
202 3373 0.0
202 3374 0.0
202 3375 -0.000139674707461267
202 3376 -0.000141584554759037
202 3377 -0.0166666666666667
203 195 0.0
203 198 0.0
203 200 0.0
203 202 0.0
203 203 0.0320996483486796
203 206 0.0
203 1388 0.0
203 1391 -0.000162062600946186
203 1392 -0.000164605835862049
203 1394 -0.00666666666666667
203 1395 -0.00666666666666667
203 3371 -0.000435069338865947
203 3372 -0.000435069445259782
203 3373 -0.0166666666666667
204 204 0.0333333333333333
204 3374 -0.0166666666666667
204 3375 -0.0166666666666667
205 156 0.0
205 195 0.0
205 205 0.0257759423107052
205 206 0.0
205 1397 -0.00666666666666667
205 1403 -0.000435040829062187
205 1404 -0.000435057557982693
205 3381 0.0
205 3382 0.0
205 3383 -0.000139674509841842
205 3384 -0.000141583570403259
205 3385 -0.0166666666666667
206 156 0.0
206 195 0.0
206 198 0.0
206 201 0.0
206 202 0.0
206 203 0.0
206 205 0.0
206 206 0.0320996585742337
206 1388 0.0
206 1399 -0.00016206253099341
206 1400 -0.000164605272998311
206 1402 -0.00666666666666667
206 1403 -0.00666666666666667
206 3379 -0.00043506937990677
206 3380 -0.000435069404218968
206 3381 -0.0166666666666667
207 207 0.0333333333333333
207 3382 -0.0166666666666667
207 3383 -0.0166666666666667
208 208 0.0255844281626147
208 209 0.0
208 211 0.0
208 1405 -0.00666666666666667
208 1409 -0.000405969476545237
208 1410 -0.000460337026543281
208 3390 0.0
208 3391 -0.0166666666666667
208 3407 -0.000140442473096456
208 3408 -0.000144782161123406
209 208 0.0
209 209 0.0321601835856103
209 210 0.0
209 1408 -0.00666666666666667
209 1409 -0.00666666666666667
209 1425 -0.000162225051571071
209 1426 -0.00052977814130553
209 3387 -0.000371043793435626
209 3388 -0.00048629033650785
209 3389 -0.0166666666666667
209 3390 0.0
210 209 0.0
210 210 0.0257239980440517
210 213 0.0
210 1413 -0.000163258163012422
210 1414 -0.000532374012608134
210 1416 0.0
210 1425 -0.00666666666666667
210 3387 -0.0166666666666667
210 3395 -0.000448746699171804
210 3396 -0.000420614096697063
211 208 0.0
211 211 0.0333333333333333
211 3390 -0.0166666666666667
211 3407 -0.0166666666666667
212 195 0.0
212 212 0.0423184714573688
212 214 0.0
212 1411 -0.000434971941726958
212 1412 -0.000435126415795955
212 1415 -0.00666666666666667
212 1416 0.0
212 3393 -0.00013925809745767
212 3394 -0.00013925809745767
212 3395 -0.0166666666666667
212 3398 -0.0166666666666667
213 210 0.0
213 213 0.0133333333333333
213 1413 -0.00666666666666667
213 1416 -0.00666666666666667
214 212 0.0
214 214 0.0251897402149191
214 215 0.0
214 1415 -0.000163022374738536
214 1416 -0.000528465266513926
214 1417 -0.00666666666666667
214 3397 -0.000143647797085318
214 3398 -0.000289432939916457
214 3399 -0.0166666666666667
215 214 0.0
215 215 0.0319702861190497
215 217 0.0
215 1417 -0.000162166578301091
215 1418 -0.000165099058739546
215 1420 -0.00666666666666667
215 1421 -0.00666666666666667
215 3399 -0.000433838074751411
215 3400 -0.000436295777836767
215 3401 -0.0166666666666667
215 3402 0.0
215 3403 0.0
216 216 0.0333333333333333
216 3402 -0.0166666666666667
216 3403 -0.0166666666666667
217 215 0.0
217 217 0.0253132418654097
217 1421 -0.000433725918784747
217 1422 -0.000436363722694928
217 1423 -0.00666666666666667
217 3403 -0.000139757971205889
217 3404 -0.000141718205587289
217 3405 -0.0166666666666667
218 187 0.0
218 218 0.0310595796671125
218 219 0.0
218 221 0.0
218 226 0.0
218 249 0.0
218 256 0.0
218 257 0.0
218 264 0.0
218 265 0.0
218 268 0.0
218 1427 -0.00666666666666667
218 1503 -0.000166685978125189
218 1504 -0.000166618503841219
218 1513 -0.000162542321360016
218 1514 -0.000167001540638854
218 1525 -0.000167001904506702
218 1526 -0.000162540904682313
218 3411 -0.0166666666666667
218 3498 0.0
218 3501 -0.000435490707175785
218 3502 -0.000434647496176783
218 3505 -0.000435278470720009
218 3506 -0.000434860167096455
218 3533 -0.000160851119958975
218 3534 -0.000161653225232298
219 218 0.0
219 219 0.0421404524821472
219 221 0.0
219 222 0.0
219 1427 -0.000415930173645344
219 1428 -0.000452435882453698
219 1431 -0.00666666666666667
219 1432 0.0
219 3411 -0.000143972797957216
219 3412 -0.000558385337699288
219 3413 -0.0166666666666667
219 3416 -0.0166666666666667
220 220 0.0133333333333333
220 221 0.0
220 1429 -0.00666666666666667
220 1432 -0.00666666666666667
221 187 0.0
221 218 0.0
221 219 0.0
221 220 0.0
221 221 0.0256049262714956
221 225 0.0
221 226 0.0
221 1429 -0.000410333749350876
221 1430 -0.000456977206374832
221 1432 0.0
221 1439 -0.00666666666666667
221 3413 -0.000139937861588157
221 3414 -0.000141801880833369
221 3423 -0.0166666666666667
222 219 0.0
222 222 0.0253040215793172
222 223 0.0
222 1431 -0.000349138390596867
222 1432 -0.000493489741678001
222 1433 -0.00666666666666667
222 3415 -0.000143597614564551
222 3416 -0.000140417723829495
222 3417 -0.0166666666666667
223 222 0.0
223 223 0.0319703071004563
223 1433 -0.000162165456144072
223 1434 -0.000165141511878992
223 1436 -0.00666666666666667
223 1437 -0.00666666666666667
223 3417 -0.000434071246446274
223 3418 -0.000436064307367709
223 3419 -0.0166666666666667
224 224 0.0333333333333333
224 3420 -0.0166666666666667
224 3421 -0.0166666666666667
225 187 0.0
225 221 0.0
225 225 0.03209984078043
225 226 0.0
225 1439 -0.000162062370509243
225 1440 -0.000164599404158889
225 1442 -0.00666666666666667
225 1443 -0.00666666666666667
225 3423 -0.000434780858347314
225 3424 -0.000435357659993625
225 3471 -0.0166666666666667
226 187 0.0
226 218 0.0
226 221 0.0
226 225 0.0
226 226 0.0295486137458739
226 234 0.0
226 236 0.0
226 237 0.0
226 243 0.0
226 249 0.0
226 1443 -0.000435055225953796
226 1444 -0.000435043161259378
226 1455 -0.000435050838802117
226 1456 -0.000435047548579851
226 1459 -0.000435040278978451
226 1460 -0.000435058108018793
226 1473 -0.00666666666666667
226 3425 -0.000139674508339166
226 3426 -0.000141583560353485
226 3435 -0.000139700012758421
226 3436 -0.000141286629556397
226 3444 0.0
226 3447 -0.000139670568327849
226 3448 -0.000141638860134678
226 3455 -0.0166666666666667
226 3471 0.0
226 3472 0.0
227 227 0.0333333333333333
227 3425 -0.0166666666666667
227 3472 -0.0166666666666667
228 228 0.0238543465439773
228 229 0.0
228 1445 -0.00666666666666667
228 3427 -0.0166666666666667
229 228 0.0
229 229 0.0420929803055049
229 231 0.0
229 232 0.0
229 1445 -0.000435040481662372
229 1446 -0.000435057905352776
229 1449 -0.00666666666666667
229 1450 0.0
229 3427 -0.000139670744554658
229 3428 -0.000141639879972026
229 3429 -0.0166666666666667
229 3432 -0.0166666666666667
230 230 0.0133333333333333
230 1447 -0.00666666666666667
230 1450 -0.00666666666666667
231 229 0.0
231 231 0.0257458286284305
231 232 0.0
231 234 0.0
231 237 0.0
231 1447 -0.000435049192197708
231 1448 -0.000435049195197823
231 1450 0.0
231 1453 -0.00666666666666667
231 3429 -0.000140348090038086
231 3430 -0.000140348090679101
231 3433 -0.0166666666666667
232 229 0.0
232 231 0.0
232 232 0.0255775441079788
232 237 0.0
232 1449 -0.00016206257446701
232 1450 -0.000164605458858507
232 1461 -0.00666666666666667
232 3431 -0.000435069394145569
232 3432 -0.000435069389980169
232 3441 -0.0166666666666667
233 187 0.0
233 233 0.0257406249620084
233 234 0.0
233 1451 -0.00666666666666667
233 1457 -0.000435047548601973
233 1458 -0.000435050838779995
233 3436 0.0
233 3437 -0.000140176041318299
233 3438 -0.000140412389918407
233 3439 -0.0166666666666667
234 187 0.0
234 226 0.0
234 231 0.0
234 233 0.0
234 234 0.0320997355336692
234 237 0.0
234 1453 -0.000162062006116685
234 1454 -0.00016460262839285
234 1456 -0.00666666666666667
234 1457 -0.00666666666666667
234 3433 -0.000435069389466851
234 3434 -0.000435069394658887
234 3435 -0.0166666666666667
234 3436 0.0
235 235 0.0333333333333333
235 3436 -0.0166666666666667
235 3437 -0.0166666666666667
236 226 0.0
236 236 0.0256633754959207
236 237 0.0
236 1459 -0.00666666666666667
236 1465 -0.000162062565682641
236 1466 -0.000164605464633444
236 3444 0.0
236 3445 -0.000435071250841687
236 3446 -0.000435067533273079
236 3447 -0.0166666666666667
237 187 0.0
237 226 0.0
237 231 0.0
237 232 0.0
237 234 0.0
237 236 0.0
237 237 0.0322092437021506
237 1461 -0.00043504028215938
237 1462 -0.000435058104838148
237 1464 -0.00666666666666667
237 1465 -0.00666666666666667
237 3441 -0.00013966923766348
237 3442 -0.000141631179766294
237 3443 -0.0166666666666667
237 3444 0.0
238 238 0.0333333333333333
238 3444 -0.0166666666666667
238 3445 -0.0166666666666667
239 239 0.0254980067883628
239 240 0.0
239 1467 -0.00666666666666667
239 1471 -0.000174566225284373
239 1472 -0.000167453071907816
239 3453 -0.0166666666666667
239 3469 -0.000434571088710914
239 3470 -0.000435566874653087
240 239 0.0
240 240 0.0319866973588324
240 241 0.0
240 1470 -0.00666666666666667
240 1471 -0.00666666666666667
240 1487 -0.000162042399166736
240 1488 -0.00016450503595365
240 3449 -0.000435090508141797
240 3450 -0.000435048274568398
240 3451 -0.0166666666666667
240 3452 0.0
240 3469 0.0
241 240 0.0
241 241 0.0256606789218085
241 243 0.0
241 1475 -0.0004350272976365
241 1476 -0.000435071087356346
241 1478 0.0
241 1487 -0.00666666666666667
241 3449 -0.0166666666666667
241 3457 -0.00013965915749249
241 3458 -0.000141572592558481
242 242 0.0333333333333333
242 3452 -0.0166666666666667
242 3469 -0.0166666666666667
243 226 0.0
243 241 0.0
243 243 0.0419833492947223
243 245 0.0
243 1473 -0.000162064999238019
243 1474 -0.000164617538202307
243 1477 -0.00666666666666667
243 1478 0.0
243 3455 -0.000435069713252912
243 3456 -0.000435069070872498
243 3457 -0.0166666666666667
243 3460 -0.0166666666666667
244 244 0.0133333333333333
244 1475 -0.00666666666666667
244 1478 -0.00666666666666667
245 243 0.0
245 245 0.0253728413941171
245 246 0.0
245 1477 -0.000435031386261266
245 1478 -0.000435066999544915
245 1479 -0.00666666666666667
245 3459 -0.000141538194636943
245 3460 -0.000139653196804215
245 3461 -0.0166666666666667
246 245 0.0
246 246 0.0319851023354645
246 248 0.0
246 1479 -0.000162052976426746
246 1480 -0.000164557847455291
246 1482 -0.00666666666666667
246 1483 -0.00666666666666667
246 3461 -0.000435101710749684
246 3462 -0.000435037070057877
246 3463 -0.0166666666666667
246 3464 0.0
246 3465 0.0
247 247 0.0333333333333333
247 3464 -0.0166666666666667
247 3465 -0.0166666666666667
248 246 0.0
248 248 0.0251600082854132
248 1483 -0.000170162248239514
248 1484 -0.000166825903639512
248 1485 -0.00666666666666667
248 3465 -0.000434677413069518
248 3466 -0.000435460867464983
248 3467 -0.0166666666666667
249 187 0.0
249 218 0.0
249 226 0.0
249 249 0.0320887275245489
249 250 0.0
249 252 0.0
249 256 0.0
249 257 0.0
249 280 0.0
249 287 0.0
249 288 0.0
249 294 0.0
249 295 0.0
249 296 0.0
249 298 0.0
249 299 0.0
249 1489 -0.00666666666666667
249 1565 -0.000435064264203552
249 1566 -0.000435034122053575
249 1575 -0.00043504045727754
249 1576 -0.000435057929735476
249 1587 -0.000435057916250487
249 1588 -0.000435040470763708
249 3473 -0.0166666666666667
249 3563 -0.000139670495544523
249 3564 -0.000141638442382618
249 3567 -0.000139670535416434
249 3568 -0.000141637844578006
249 3595 -0.000139699946083263
249 3596 -0.000141286163109395
250 249 0.0
250 250 0.0419834068202609
250 252 0.0
250 253 0.0
250 1489 -0.000162064604852803
250 1490 -0.000164615579255981
250 1493 -0.00666666666666667
250 1494 0.0
250 3473 -0.00043506985791157
250 3474 -0.000435068926213479
250 3475 -0.0166666666666667
250 3478 -0.0166666666666667
251 251 0.0133333333333333
251 1491 -0.00666666666666667
251 1494 -0.00666666666666667
252 249 0.0
252 250 0.0
252 252 0.0256004806855423
252 256 0.0
252 1491 -0.000435031888747002
252 1492 -0.000435066497147766
252 1494 0.0
252 1501 -0.00666666666666667
252 3475 -0.000139666077646514
252 3476 -0.0001416125861988
252 3485 -0.0166666666666667
253 250 0.0
253 253 0.0253696619275627
253 254 0.0
253 1493 -0.00043503162807499
253 1494 -0.000435066757774082
253 1495 -0.00666666666666667
253 3477 -0.000141624350828128
253 3478 -0.000139668115474051
253 3479 -0.0166666666666667
254 253 0.0
254 254 0.0319694542067313
254 1495 -0.000162168008296604
254 1496 -0.000165130579439813
254 1498 -0.00666666666666667
254 1499 -0.00666666666666667
254 3479 -0.000435074201017786
254 3480 -0.000435064583034156
254 3481 -0.0166666666666667
255 255 0.0333333333333333
255 3482 -0.0166666666666667
255 3483 -0.0166666666666667
256 218 0.0
256 249 0.0
256 252 0.0
256 256 0.0320971379137157
256 257 0.0
256 1501 -0.000162079935652636
256 1502 -0.000164692040195761
256 1504 -0.00666666666666667
256 1505 -0.00666666666666667
256 3485 -0.00043507825039067
256 3486 -0.000435060533485638
256 3533 -0.0166666666666667
256 3534 0.0
257 218 0.0
257 249 0.0
257 256 0.0
257 257 0.0296734541379751
257 265 0.0
257 267 0.0
257 268 0.0
257 274 0.0
257 1505 -0.000434820802690178
257 1506 -0.000435277323473813
257 1517 -0.000435044697597018
257 1518 -0.000435053689697235
257 1521 -0.000435024190531307
257 1522 -0.000435074193732175
257 1535 -0.00666666666666667
257 3487 -0.000139507036577244
257 3488 -0.000140641592938045
257 3497 -0.000139525322491482
257 3498 -0.000140487892558473
257 3506 0.0
257 3509 -0.000139505276818092
257 3510 -0.000140684567793643
257 3517 -0.0166666666666667
257 3534 0.0
258 258 0.0333333333333333
258 3487 -0.0166666666666667
258 3534 -0.0166666666666667
259 259 0.0238543465439773
259 260 0.0
259 1507 -0.00666666666666667
259 3489 -0.0166666666666667
260 259 0.0
260 260 0.0420931571567068
260 262 0.0
260 263 0.0
260 265 0.0
260 268 0.0
260 1507 -0.000435040416088372
260 1508 -0.000435057970921028
260 1511 -0.00666666666666667
260 1512 0.0
260 3489 -0.000139669898838359
260 3490 -0.000141634997663803
260 3491 -0.0166666666666667
260 3494 -0.0166666666666667
261 261 0.0133333333333333
261 1509 -0.00666666666666667
261 1512 -0.00666666666666667
262 260 0.0
262 262 0.0257455695212117
262 265 0.0
262 1509 -0.000435048641715767
262 1510 -0.000435049745678237
262 1512 0.0
262 1515 -0.00666666666666667
262 3491 -0.00014055031215472
262 3492 -0.000140352831077276
262 3495 -0.0166666666666667
263 260 0.0
263 263 0.0255770773094192
263 268 0.0
263 1511 -0.000162065760605982
263 1512 -0.000164621246760972
263 1523 -0.00666666666666667
263 3493 -0.000435067799539816
263 3494 -0.000435070984577867
263 3503 -0.0166666666666667
264 218 0.0
264 264 0.0257823402544687
264 265 0.0
264 1513 -0.00666666666666667
264 1519 -0.00043505368977673
264 1520 -0.00043504469751751
264 3498 0.0
264 3499 -0.000139680840737955
264 3500 -0.000139808785077554
264 3501 -0.0166666666666667
265 218 0.0
265 257 0.0
265 260 0.0
265 262 0.0
265 264 0.0
265 265 0.0320998367437755
265 268 0.0
265 1512 0.0
265 1515 -0.000162061328166369
265 1516 -0.000164607216616361
265 1518 -0.00666666666666667
265 1519 -0.00666666666666667
265 3495 -0.000435066606879862
265 3496 -0.000435072177221241
265 3497 -0.0166666666666667
265 3498 0.0
266 266 0.0333333333333333
266 3498 -0.0166666666666667
266 3499 -0.0166666666666667
267 257 0.0
267 267 0.0256631852001646
267 268 0.0
267 1521 -0.00666666666666667
267 1527 -0.000162061504581954
267 1528 -0.000164621967289906
267 3506 0.0
267 3507 -0.000435507216634917
267 3508 -0.000434630954199676
267 3509 -0.0166666666666667
268 218 0.0
268 257 0.0
268 260 0.0
268 263 0.0
268 265 0.0
268 267 0.0
268 268 0.0323103002924176
268 1512 0.0
268 1523 -0.000435000466897472
268 1524 -0.000435097908603313
268 1526 -0.00666666666666667
268 1527 -0.00666666666666667
268 3503 -0.000139356047055133
268 3504 -0.000139855780445013
268 3505 -0.0166666666666667
268 3506 0.0
269 269 0.0333333333333333
269 3506 -0.0166666666666667
269 3507 -0.0166666666666667
270 270 0.0255452807930412
270 271 0.0
270 1529 -0.00666666666666667
270 1533 -0.000162114939468459
270 1534 -0.000164756390961435
270 3515 -0.0166666666666667
270 3531 -0.000431301131288119
270 3532 -0.000438790367540799
271 270 0.0
271 271 0.0318949373068843
271 272 0.0
271 1532 -0.00666666666666667
271 1533 -0.00666666666666667
271 1549 -0.000402874184979867
271 1550 -0.000462635081887803
271 3511 -0.000142980894339064
271 3512 -0.000158534103555777
271 3513 -0.0166666666666667
271 3514 0.0
271 3531 0.0
272 271 0.0
272 272 0.0255622073519537
272 274 0.0
272 1537 -0.000163035589715461
272 1538 -0.000530385305835546
272 1540 0.0
272 1549 -0.00666666666666667
272 3511 -0.0166666666666667
272 3519 -0.000147270631146332
272 3520 -0.000564704614718581
273 273 0.0333333333333333
273 3514 -0.0166666666666667
273 3531 -0.0166666666666667
274 257 0.0
274 272 0.0
274 274 0.0421663414565642
274 276 0.0
274 1535 -0.000162348256591776
274 1536 -0.000530720557527398
274 1539 -0.00666666666666667
274 1540 0.0
274 3517 -0.000435705239999077
274 3518 -0.000434432059542405
274 3519 -0.0166666666666667
274 3522 -0.0166666666666667
275 275 0.0133333333333333
275 1537 -0.00666666666666667
275 1540 -0.00666666666666667
276 274 0.0
276 276 0.0255893861003781
276 277 0.0
276 1539 -0.000399599558422803
276 1540 -0.000464884917361519
276 1541 -0.00666666666666667
276 3521 -0.000139439405915425
276 3522 -0.00013925809745767
276 3523 -0.0166666666666667
277 276 0.0
277 277 0.0319824507944574
277 279 0.0
277 1541 -0.00016206307038947
277 1542 -0.000164644944937428
277 1544 -0.00666666666666667
277 1545 -0.00666666666666667
277 3523 -0.000437167563287824
277 3524 -0.000432956764514018
277 3525 -0.0166666666666667
277 3526 0.0
277 3527 0.0
278 278 0.0333333333333333
278 3526 -0.0166666666666667
278 3527 -0.0166666666666667
279 277 0.0
279 279 0.0252771264600551
279 1545 -0.00043494517855946
279 1546 -0.000435153154613507
279 1547 -0.00666666666666667
279 3527 -0.000350105792758167
279 3528 -0.000144639853954666
279 3529 -0.0166666666666667
280 63 0.0
280 102 0.0
280 156 0.0
280 187 0.0
280 249 0.0
280 280 0.0323033163369174
280 281 0.0
280 283 0.0
280 287 0.0
280 288 0.0
280 311 0.0
280 318 0.0
280 319 0.0
280 324 0.0
280 325 0.0
280 326 0.0
280 329 0.0
280 330 0.0
280 1551 -0.00666666666666667
280 1627 -0.000435097665976918
280 1628 -0.000435000709641257
280 1637 -0.000435007341079702
280 1638 -0.000435091037539719
280 1649 -0.000435072205240009
280 1650 -0.000435026179501724
280 3535 -0.0166666666666667
280 3625 -0.000139419879842034
280 3626 -0.000140230214929089
280 3629 -0.00013943437486967
280 3630 -0.00014006852215433
280 3657 -0.000139419950330123
280 3658 -0.000140190964958966
281 280 0.0
281 281 0.0419134531555254
281 283 0.0
281 284 0.0
281 1551 -0.000162816160491244
281 1552 -0.000168362009612906
281 1555 -0.00666666666666667
281 1556 0.0
281 3535 -0.000435630521898673
281 3536 -0.000434507214005793
281 3537 -0.0166666666666667
281 3540 -0.0166666666666667
282 282 0.0133333333333333
282 1553 -0.00666666666666667
282 1556 -0.00666666666666667
283 280 0.0
283 281 0.0
283 283 0.0256392673957524
283 287 0.0
283 1553 -0.000434980287177095
283 1554 -0.000435118076428733
283 1556 0.0
283 1563 -0.00666666666666667
283 3537 -0.000139536670190099
283 3538 -0.000140761521185632
283 3547 -0.0166666666666667
284 281 0.0
284 284 0.0254101279172769
284 285 0.0
284 1555 -0.000391663109206836
284 1556 -0.000470345934717641
284 1557 -0.00666666666666667
284 3539 -0.000559739137192077
284 3540 -0.000144437867213116
284 3541 -0.0166666666666667
285 284 0.0
285 285 0.0321268372004474
285 1557 -0.000317994853290403
285 1558 -0.000506466269749422
285 1560 -0.00666666666666667
285 1561 -0.00666666666666667
285 3541 -0.000141554480273217
285 3542 -0.000543269256103986
285 3543 -0.0166666666666667
286 286 0.0333333333333333
286 3544 -0.0166666666666667
286 3545 -0.0166666666666667
287 249 0.0
287 280 0.0
287 283 0.0
287 287 0.0320995602660989
287 288 0.0
287 1563 -0.000162062220957438
287 1564 -0.000164608241679856
287 1566 -0.00666666666666667
287 1567 -0.00666666666666667
287 3547 -0.000435330233904635
287 3548 -0.000434808333182333
287 3595 -0.0166666666666667
288 249 0.0
288 280 0.0
288 287 0.0
288 288 0.0296377168165363
288 294 0.0
288 295 0.0
288 296 0.0
288 298 0.0
288 305 0.0
288 1567 -0.000435034122194007
288 1568 -0.000435064264063141
288 1579 -0.000435057871804129
288 1580 -0.000435040515213944
288 1583 -0.000435040521994138
288 1584 -0.000435057865024524
288 1597 -0.00666666666666667
288 3549 -0.000140176366522793
288 3550 -0.000140412799232444
288 3559 -0.000139670105523366
288 3560 -0.000141635362805995
288 3571 -0.000139670065580594
288 3572 -0.000141635961417652
288 3579 -0.0166666666666667
288 3595 0.0
288 3596 0.0
289 289 0.0333333333333333
289 3549 -0.0166666666666667
289 3596 -0.0166666666666667
290 290 0.0238543465439773
290 291 0.0
290 1569 -0.00666666666666667
290 3551 -0.0166666666666667
291 290 0.0
291 291 0.0419834073428042
291 293 0.0
291 294 0.0
291 1569 -0.000162064603057306
291 1570 -0.000164615562604911
291 1573 -0.00666666666666667
291 1574 0.0
291 3551 -0.00043506939118571
291 3552 -0.000435069392940028
291 3553 -0.0166666666666667
291 3556 -0.0166666666666667
292 292 0.0133333333333333
292 1571 -0.00666666666666667
292 1574 -0.00666666666666667
293 291 0.0
293 293 0.0256582244991315
293 294 0.0
293 296 0.0
293 1571 -0.000435031767250997
293 1572 -0.000435066618622618
293 1574 0.0
293 1577 -0.00666666666666667
293 3553 -0.000139670763696216
293 3554 -0.000141639630426265
293 3557 -0.0166666666666667
294 249 0.0
294 288 0.0
294 291 0.0
294 293 0.0
294 294 0.0256868355803534
294 296 0.0
294 298 0.0
294 299 0.0
294 1573 -0.00043503175999427
294 1574 -0.000435066625877938
294 1585 -0.00666666666666667
294 3555 -0.000141639615804874
294 3556 -0.000139670761162716
294 3565 -0.0166666666666667
295 249 0.0
295 288 0.0
295 295 0.0255642317604597
295 296 0.0
295 1575 -0.00666666666666667
295 1581 -0.000164358973103396
295 1582 -0.000164360422527891
295 3559 0.0
295 3560 0.0
295 3561 -0.000435064986808902
295 3562 -0.000435073797255202
295 3563 -0.0166666666666667
296 249 0.0
296 288 0.0
296 293 0.0
296 294 0.0
296 295 0.0
296 296 0.0320996548652853
296 1577 -0.000162062556267884
296 1578 -0.00016460537000819
296 1580 -0.00666666666666667
296 1581 -0.00666666666666667
296 3557 -0.000435069386965028
296 3558 -0.00043506939716071
296 3559 -0.0166666666666667
297 297 0.0333333333333333
297 3560 -0.0166666666666667
297 3561 -0.0166666666666667
298 249 0.0
298 288 0.0
298 294 0.0
298 298 0.0256786747395172
298 299 0.0
298 1583 -0.00666666666666667
298 1589 -0.000164358941319386
298 1590 -0.000164360402068052
298 3567 0.0
298 3568 0.0
298 3569 -0.00043506499637864
298 3570 -0.000435073787685732
298 3571 -0.0166666666666667
299 249 0.0
299 294 0.0
299 298 0.0
299 299 0.0320996543404328
299 1585 -0.000162062559830136
299 1586 -0.000164605386233707
299 1588 -0.00666666666666667
299 1589 -0.00666666666666667
299 3565 -0.000435069391760569
299 3566 -0.000435069392365169
299 3567 -0.0166666666666667
300 300 0.0333333333333333
300 3568 -0.0166666666666667
300 3569 -0.0166666666666667
301 301 0.0256124534411806
301 302 0.0
301 1591 -0.00666666666666667
301 1595 -0.000431800076739517
301 1596 -0.000438245882118603
301 3577 -0.0166666666666667
301 3593 -0.000140117598274003
301 3594 -0.00014347006535201
302 301 0.0
302 302 0.0319552376669787
302 303 0.0
302 1594 -0.00666666666666667
302 1595 -0.00666666666666667
302 1611 -0.000162292777295444
302 1612 -0.000165829805992421
302 3573 -0.000434952598750325
302 3574 -0.000435186141504625
302 3575 -0.0166666666666667
302 3576 0.0
302 3593 0.0
303 302 0.0
303 303 0.0256464487088938
303 305 0.0
303 1599 -0.000435011184600756
303 1600 -0.000435087195554581
303 1602 0.0
303 1611 -0.00666666666666667
303 3573 -0.0166666666666667
303 3581 -0.000139730287993371
303 3582 -0.00014198271545839
304 304 0.0333333333333333
304 3576 -0.0166666666666667
304 3593 -0.0166666666666667
305 288 0.0
305 303 0.0
305 305 0.0419830852158453
305 307 0.0
305 1597 -0.000162066807230739
305 1598 -0.000164626562646873
305 1601 -0.00666666666666667
305 1602 0.0
305 3579 -0.00043507067739206
305 3580 -0.00043506810672843
305 3581 -0.0166666666666667
305 3584 -0.0166666666666667
306 306 0.0133333333333333
306 1599 -0.00666666666666667
306 1602 -0.00666666666666667
307 305 0.0
307 307 0.0253594622355669
307 308 0.0
307 1601 -0.000435024023596374
307 1602 -0.000435074360623453
307 1603 -0.00666666666666667
307 3583 -0.000141918001872326
307 3584 -0.000139719073147957
307 3585 -0.0166666666666667
308 307 0.0
308 308 0.031957178657569
308 310 0.0
308 1603 -0.000162274431703276
308 1604 -0.000165730950021604
308 1606 -0.00666666666666667
308 1607 -0.00666666666666667
308 3585 -0.000434974886831416
308 3586 -0.000435163868606228
308 3587 -0.0166666666666667
308 3588 0.0
308 3589 0.0
309 309 0.0333333333333333
309 3588 -0.0166666666666667
309 3589 -0.0166666666666667
310 308 0.0
310 310 0.0252660555352819
310 1607 -0.000432079853778089
310 1608 -0.000437974705900715
310 1609 -0.00666666666666667
310 3589 -0.000140103968298786
310 3590 -0.000143405882709687
310 3591 -0.0166666666666667
311 280 0.0
311 311 0.0320831749900574
311 312 0.0
311 314 0.0
311 318 0.0
311 319 0.0
311 342 0.0
311 349 0.0
311 350 0.0
311 355 0.0
311 356 0.0
311 357 0.0
311 358 0.0
311 360 0.0
311 361 0.0
311 404 0.0
311 1613 -0.00666666666666667
311 1689 -0.000435010710626149
311 1690 -0.000435087669354309
311 1699 -0.000435081584415368
311 1700 -0.000435016797724697
311 1711 -0.000435029181351461
311 1712 -0.000435069204038056
311 3597 -0.0166666666666667
311 3687 -0.000139679127767891
311 3688 -0.000141688504708434
311 3691 -0.000139679366822631
311 3692 -0.000141684903032989
311 3719 -0.000139708981740112
311 3720 -0.00014132824272476
312 311 0.0
312 312 0.0421628681453787
312 314 0.0
312 315 0.0
312 1613 -0.000162519834506453
312 1614 -0.000531411092685664
312 1617 -0.00666666666666667
312 1618 0.0
312 3597 -0.000435115619333969
312 3598 -0.00043502315652078
312 3599 -0.0166666666666667
312 3602 -0.0166666666666667
313 313 0.0133333333333333
313 1615 -0.00666666666666667
313 1618 -0.00666666666666667
314 311 0.0
314 312 0.0
314 314 0.0256973883757283
314 318 0.0
314 1615 -0.000435144739153747
314 1616 -0.0004349536025446
314 1618 0.0
314 1625 -0.00666666666666667
314 3599 -0.000139445450795413
314 3600 -0.000139963260485348
314 3609 -0.0166666666666667
315 312 0.0
315 315 0.0253811407347032
315 316 0.0
315 1617 -0.000162365832482225
315 1618 -0.000530093834704794
315 1619 -0.00666666666666667
315 3601 -0.000532898920971015
315 3602 -0.000274567299328894
315 3603 -0.0166666666666667
316 315 0.0
316 316 0.0318951479564183
316 1619 -0.000406469353648676
316 1620 -0.000459955485443886
316 1622 -0.00666666666666667
316 1623 -0.00666666666666667
316 3603 -0.000142934406904232
316 3604 -0.000158611614219584
316 3605 -0.0166666666666667
317 317 0.0333333333333333
317 3606 -0.0166666666666667
317 3607 -0.0166666666666667
318 280 0.0
318 311 0.0
318 314 0.0
318 318 0.0320991543625474
318 319 0.0
318 1625 -0.000162064188321971
318 1626 -0.000164621776697155
318 1628 -0.00666666666666667
318 1629 -0.00666666666666667
318 3609 -0.000435541716493012
318 3610 -0.000434596353391778
318 3657 -0.0166666666666667
319 280 0.0
319 311 0.0
319 318 0.0
319 319 0.0292550790147568
319 324 0.0
319 325 0.0
319 326 0.0
319 327 0.0
319 329 0.0
319 330 0.0
319 336 0.0
319 1629 -0.000164221437092461
319 1630 -0.000164276463598209
319 1641 -0.000164512437178605
319 1642 -0.000162035132712287
319 1645 -0.000162035093479731
319 1646 -0.000164512451389382
319 1659 -0.00666666666666667
319 3611 -0.000435053772892073
319 3612 -0.000435085010459558
319 3621 -0.000435059870297027
319 3622 -0.000435078913540754
319 3633 -0.000435048849909038
319 3634 -0.000435089932877584
319 3641 -0.0166666666666667
319 3657 0.0
319 3658 0.0
320 320 0.0333333333333333
320 3611 -0.0166666666666667
320 3658 -0.0166666666666667
321 321 0.0238543465439773
321 322 0.0
321 1631 -0.00666666666666667
321 3613 -0.0166666666666667
322 321 0.0
322 322 0.0420929736779581
322 324 0.0
322 325 0.0
322 1631 -0.000435040484785291
322 1632 -0.00043505790223013
322 1635 -0.00666666666666667
322 3613 -0.000139670776269951
322 3614 -0.0001416400630656
322 3615 -0.0166666666666667
322 3618 -0.0166666666666667
323 323 0.0133333333333333
323 1633 -0.00666666666666667
323 1636 -0.00666666666666667
324 280 0.0
324 319 0.0
324 322 0.0
324 324 0.025550290012265
324 325 0.0
324 326 0.0
324 327 0.0
324 1633 -0.000162127341684404
324 1634 -0.000164583013632055
324 1635 0.0
324 1636 0.0
324 1639 -0.00666666666666667
324 3615 -0.000435069330991406
324 3616 -0.00043506945313432
324 3619 -0.0166666666666667
325 280 0.0
325 319 0.0
325 322 0.0
325 324 0.0
325 325 0.0252824734873781
325 330 0.0
325 1635 -0.00016631931656964
325 1636 -0.000166854313971363
325 1647 -0.00666666666666667
325 3617 -0.00014034602743011
325 3618 -0.000140345973839162
325 3627 -0.0166666666666667
326 280 0.0
326 319 0.0
326 324 0.0
326 326 0.025548544737708
326 327 0.0
326 1637 -0.00666666666666667
326 1643 -0.000162065357686433
326 1644 -0.000164618725863946
326 3621 0.0
326 3622 0.0
326 3623 -0.000435045710174179
326 3624 -0.000435093072169511
326 3625 -0.0166666666666667
327 319 0.0
327 324 0.0
327 326 0.0
327 327 0.0322052497845927
327 1639 -0.000435042780427775
327 1640 -0.000435055606761622
327 1642 -0.00666666666666667
327 1643 -0.00666666666666667
327 3619 -0.00013968863471976
327 3620 -0.000141743168416124
327 3621 -0.0166666666666667
328 328 0.0333333333333333
328 3622 -0.0166666666666667
328 3623 -0.0166666666666667
329 280 0.0
329 319 0.0
329 329 0.0258530259445254
329 330 0.0
329 1645 -0.00666666666666667
329 1651 -0.000435026047901025
329 1652 -0.000435072336809685
329 3629 0.0
329 3630 0.0
329 3631 -0.00014020851379457
329 3632 -0.00014045125199833
329 3633 -0.0166666666666667
330 280 0.0
330 319 0.0
330 325 0.0
330 329 0.0
330 330 0.0320994819723091
330 1647 -0.000162063731980657
330 1648 -0.000164611237647245
330 1650 -0.00666666666666667
330 1651 -0.00666666666666667
330 3627 -0.000435070648727867
330 3628 -0.000435068135392856
330 3629 -0.0166666666666667
331 331 0.0333333333333333
331 3630 -0.0166666666666667
331 3631 -0.0166666666666667
332 332 0.0256614731138163
332 333 0.0
332 1653 -0.00666666666666667
332 1657 -0.0004336337897419
332 1658 -0.000436454594164531
332 3639 -0.0166666666666667
332 3655 -0.000139755721134129
332 3656 -0.000141707074016603
333 332 0.0
333 333 0.0319693244854589
333 334 0.0
333 1656 -0.00666666666666667
333 1657 -0.00666666666666667
333 1673 -0.000162167689058961
333 1674 -0.000165135297900303
333 3635 -0.000435388199753575
333 3636 -0.000434750258397956
333 3637 -0.0166666666666667
333 3638 0.0
333 3655 0.0
334 333 0.0
334 334 0.0257682962742949
334 336 0.0
334 1661 -0.00041776680214707
334 1662 -0.000450926780658111
334 1664 0.0
334 1673 -0.00666666666666667
334 3635 -0.0166666666666667
334 3643 -0.00013972058088421
334 3644 -0.000139932852514187
335 335 0.0333333333333333
335 3638 -0.0166666666666667
335 3655 -0.0166666666666667
336 319 0.0
336 334 0.0
336 336 0.0418896828694112
336 338 0.0
336 1659 -0.00043540064202835
336 1660 -0.00043469712689232
336 1663 -0.00666666666666667
336 1664 0.0
336 3641 -0.000142602728611153
336 3642 -0.000158587369045204
336 3643 -0.0166666666666667
336 3646 -0.0166666666666667
337 337 0.0133333333333333
337 1661 -0.00666666666666667
337 1664 -0.00666666666666667
338 336 0.0
338 338 0.025283374015408
338 339 0.0
338 1663 -0.000162927680290126
338 1664 -0.000530230645664085
338 1665 -0.00666666666666667
338 3645 -0.000546160778925739
338 3646 -0.000147442848397535
338 3647 -0.0166666666666667
339 338 0.0
339 339 0.0321707087590769
339 341 0.0
339 1665 -0.000162144345304456
339 1666 -0.000529813749405098
339 1668 -0.00666666666666667
339 1669 -0.00666666666666667
339 3647 -0.000400413710403849
339 3648 -0.000465646679664707
339 3649 -0.0166666666666667
339 3650 0.0
340 340 0.0333333333333333
340 341 0.0
340 3650 -0.0166666666666667
340 3651 -0.0166666666666667
341 339 0.0
341 340 0.0
341 341 0.0252392538739079
341 1669 -0.000407938480218889
341 1670 -0.000458837927071482
341 1671 -0.00666666666666667
341 3650 0.0
341 3651 -0.000140401212229715
341 3652 -0.00014463978982467
341 3653 -0.0166666666666667
342 311 0.0
342 342 0.0310595586219111
342 343 0.0
342 345 0.0
342 349 0.0
342 350 0.0
342 373 0.0
342 376 0.0
342 380 0.0
342 381 0.0
342 386 0.0
342 387 0.0
342 388 0.0
342 391 0.0
342 392 0.0
342 404 0.0
342 1675 -0.00666666666666667
342 1751 -0.00016668637390586
342 1752 -0.000166616817170294
342 1761 -0.000162542375670816
342 1762 -0.000167001893968644
342 1773 -0.000167002256657802
342 1774 -0.000162540963549469
342 3659 -0.0166666666666667
342 3749 -0.000435493815113026
342 3750 -0.000434644379614391
342 3753 -0.000435276969900176
342 3754 -0.000434861669984603
342 3781 -0.000160852226257029
342 3782 -0.00016165018861016
343 342 0.0
343 343 0.0421404520292117
343 345 0.0
343 346 0.0
343 1675 -0.000415926985437479
343 1676 -0.000452438516787344
343 1679 -0.00666666666666667
343 1680 0.0
343 3659 -0.000143972832788044
343 3660 -0.00055838535565162
343 3661 -0.0166666666666667
343 3664 -0.0166666666666667
344 344 0.0133333333333333
344 1677 -0.00666666666666667
344 1680 -0.00666666666666667
345 342 0.0
345 343 0.0
345 345 0.025604492287599
345 349 0.0
345 1677 -0.000410332540159176
345 1678 -0.00045697815460488
345 1680 0.0
345 1687 -0.00666666666666667
345 3661 -0.000139941367226141
345 3662 -0.000141815000445607
345 3671 -0.0166666666666667
346 343 0.0
346 346 0.0253040211801739
346 347 0.0
346 1679 -0.00034913835853942
346 1680 -0.00049348976002288
346 1681 -0.00666666666666667
346 3663 -0.000143597630564742
346 3664 -0.000140417726652688
346 3665 -0.0166666666666667
347 346 0.0
347 347 0.0319703070963996
347 1681 -0.000162165456200227
347 1682 -0.000165141511934385
347 1684 -0.00666666666666667
347 1685 -0.00666666666666667
347 3665 -0.000434071240888808
347 3666 -0.000436064312888945
347 3667 -0.0166666666666667
348 348 0.0333333333333333
348 3668 -0.0166666666666667
348 3669 -0.0166666666666667
349 311 0.0
349 342 0.0
349 345 0.0
349 349 0.0321002728756757
349 350 0.0
349 1687 -0.000162059451012689
349 1688 -0.000164599233536076
349 1690 -0.00666666666666667
349 1691 -0.00666666666666667
349 3671 -0.000434776065018225
349 3672 -0.000435362444422488
349 3719 -0.0166666666666667
350 311 0.0
350 342 0.0
350 349 0.0
350 350 0.0296364413425855
350 355 0.0
350 356 0.0
350 357 0.0
350 358 0.0
350 360 0.0
350 367 0.0
350 1691 -0.00043508768080415
350 1692 -0.000435010699170602
350 1703 -0.000435056252509799
350 1704 -0.000435042134635998
350 1707 -0.000435043745553257
350 1708 -0.000435054641693515
350 1721 -0.00666666666666667
350 3673 -0.000140181958380352
350 3674 -0.000140419741914
350 3683 -0.000139672279648728
350 3684 -0.000141646519897785
350 3695 -0.000139672170490271
350 3696 -0.000141648157868299
350 3703 -0.0166666666666667
350 3719 0.0
350 3720 0.0
351 351 0.0333333333333333
351 3673 -0.0166666666666667
351 3720 -0.0166666666666667
352 352 0.0238543465439773
352 353 0.0
352 1693 -0.00666666666666667
352 3675 -0.0166666666666667
353 352 0.0
353 353 0.0419834145316454
353 355 0.0
353 356 0.0
353 1693 -0.000162064554135908
353 1694 -0.000164615465489623
353 1697 -0.00666666666666667
353 3675 -0.00043506932052143
353 3676 -0.000435069463604292
353 3677 -0.0166666666666667
353 3680 -0.0166666666666667
354 354 0.0133333333333333
354 1695 -0.00666666666666667
354 1698 -0.00666666666666667
355 311 0.0
355 350 0.0
355 353 0.0
355 355 0.0256581977277514
355 356 0.0
355 358 0.0
355 1695 -0.000435032270858094
355 1696 -0.000435066115102212
355 1697 0.0
355 1698 0.0
355 1701 -0.00666666666666667
355 3677 -0.000139670889730207
355 3678 -0.000141640366257598
355 3681 -0.0166666666666667
356 311 0.0
356 350 0.0
356 353 0.0
356 355 0.0
356 356 0.0256861835048419
356 360 0.0
356 361 0.0
356 1697 -0.000435031835174661
356 1698 -0.000435066550710658
356 1709 -0.00666666666666667
356 3679 -0.000141657676433903
356 3680 -0.000139673889655509
356 3689 -0.0166666666666667
357 311 0.0
357 350 0.0
357 357 0.025564815165201
357 358 0.0
357 1699 -0.00666666666666667
357 1705 -0.000164341185001132
357 1706 -0.000164366486837536
357 3683 0.0
357 3684 0.0
357 3685 -0.000435057590298098
357 3686 -0.000435081193385279
357 3687 -0.0166666666666667
358 311 0.0
358 350 0.0
358 355 0.0
358 357 0.0
358 358 0.0320996755017594
358 1701 -0.000162062416434053
358 1702 -0.000164605215334602
358 1704 -0.00666666666666667
358 1705 -0.00666666666666667
358 3681 -0.000435069155034934
358 3682 -0.000435069629090626
358 3683 -0.0166666666666667
359 359 0.0333333333333333
359 3684 -0.0166666666666667
359 3685 -0.0166666666666667
360 311 0.0
360 350 0.0
360 356 0.0
360 360 0.0256787278728396
360 361 0.0
360 1707 -0.00666666666666667
360 1713 -0.000165176244427056
360 1714 -0.000164358900259774
360 3691 0.0
360 3692 0.0
360 3693 -0.00043504466385979
360 3694 -0.000435094118323149
360 3695 -0.0166666666666667
361 311 0.0
361 356 0.0
361 360 0.0
361 361 0.0321000539265608
361 1709 -0.00016205986350032
361 1710 -0.000164610171594746
361 1712 -0.00666666666666667
361 1713 -0.00666666666666667
361 3689 -0.000435063688039147
361 3690 -0.000435075095983264
361 3691 -0.0166666666666667
362 362 0.0333333333333333
362 3692 -0.0166666666666667
362 3693 -0.0166666666666667
363 363 0.0254980067884809
363 364 0.0
363 1715 -0.00666666666666667
363 1719 -0.00017456624910714
363 1720 -0.000167453071908487
363 3701 -0.0166666666666667
363 3717 -0.000434571088713673
363 3718 -0.000435566874650337
364 363 0.0
364 364 0.031986697371226
364 365 0.0
364 1718 -0.00666666666666667
364 1719 -0.00666666666666667
364 1735 -0.000162042399128668
364 1736 -0.000164505035561991
364 3697 -0.000435090496096461
364 3698 -0.000435048286615349
364 3699 -0.0166666666666667
364 3700 0.0
364 3717 0.0
365 364 0.0
365 365 0.0256606773361423
365 367 0.0
365 1723 -0.000435027350434487
365 1724 -0.000435071034569932
365 1726 0.0
365 1735 -0.00666666666666667
365 3697 -0.0166666666666667
365 3705 -0.00013965916385391
365 3706 -0.000141572633531097
366 366 0.0333333333333333
366 3700 -0.0166666666666667
366 3717 -0.0166666666666667
367 350 0.0
367 365 0.0
367 367 0.0419833531788694
367 369 0.0
367 1721 -0.000162064983519178
367 1722 -0.000164617409769547
367 1725 -0.00666666666666667
367 1726 0.0
367 3703 -0.000435066797805973
367 3704 -0.000435071986298389
367 3705 -0.0166666666666667
367 3708 -0.0166666666666667
368 368 0.0133333333333333
368 1723 -0.00666666666666667
368 1726 -0.00666666666666667
369 367 0.0
369 369 0.025372837226713
369 370 0.0
369 1725 -0.000435031629619492
369 1726 -0.000435066756229833
369 1727 -0.00666666666666667
369 3707 -0.000141538304155847
369 3708 -0.000139653215055702
369 3709 -0.0166666666666667
370 369 0.0
370 370 0.0319851023684395
370 372 0.0
370 1727 -0.000162052976330494
370 1728 -0.00016455784639687
370 1730 -0.00666666666666667
370 1731 -0.00666666666666667
370 3709 -0.000435101676794291
370 3710 -0.000435037104020241
370 3711 -0.0166666666666667
370 3712 0.0
370 3713 0.0
371 371 0.0333333333333333
371 3712 -0.0166666666666667
371 3713 -0.0166666666666667
372 370 0.0
372 372 0.0251600082863014
372 1731 -0.000170162317751058
372 1732 -0.000166825903611445
372 1733 -0.00666666666666667
372 3713 -0.000434677413065024
372 3714 -0.000435460867469466
372 3715 -0.0166666666666667
373 342 0.0
373 373 0.0320880852120032
373 374 0.0
373 376 0.0
373 381 0.0
373 404 0.0
373 407 0.0
373 411 0.0
373 412 0.0
373 418 0.0
373 419 0.0
373 420 0.0
373 423 0.0
373 1737 -0.00666666666666667
373 1813 -0.000435038460514972
373 1814 -0.000435059926303324
373 1823 -0.000435042591383769
373 1824 -0.0004350557957933
373 1835 -0.000435056876315471
373 1836 -0.000435041510784235
373 3721 -0.0166666666666667
373 3811 -0.000139671537483522
373 3812 -0.000141644487121938
373 3815 -0.000139671620203623
373 3816 -0.000141643246303753
373 3843 -0.000139700882958904
373 3844 -0.00014129275188291
374 373 0.0
374 374 0.0419834046918393
374 376 0.0
374 377 0.0
374 1737 -0.000162064626628578
374 1738 -0.000164615674182357
374 1741 -0.00666666666666667
374 1742 0.0
374 3721 -0.0004350679395065
374 3722 -0.000435070844612537
374 3723 -0.0166666666666667
374 3726 -0.0166666666666667
375 375 0.0133333333333333
375 1739 -0.00666666666666667
375 1742 -0.00666666666666667
376 342 0.0
376 373 0.0
376 374 0.0
376 376 0.0256008015072016
376 380 0.0
376 381 0.0
376 1739 -0.000435031360634293
376 1740 -0.000435067025167481
376 1742 0.0
376 1749 -0.00666666666666667
376 3723 -0.000139664557957333
376 3724 -0.00014160381409032
376 3733 -0.0166666666666667
377 374 0.0
377 377 0.025369108019332
377 378 0.0
377 1741 -0.000435031920197821
377 1742 -0.000435066465702252
377 1743 -0.00666666666666667
377 3725 -0.000141639613175401
377 3726 -0.000139670761286573
377 3727 -0.0166666666666667
378 377 0.0
378 378 0.0319837881512948
378 1743 -0.000162062001713371
378 1744 -0.000164602606520337
378 1746 -0.00666666666666667
378 1747 -0.00666666666666667
378 3727 -0.000435069392365181
378 3728 -0.000435069391760557
378 3729 -0.0166666666666667
379 379 0.0333333333333333
379 3730 -0.0166666666666667
379 3731 -0.0166666666666667
380 342 0.0
380 376 0.0
380 380 0.0320970354177167
380 381 0.0
380 1749 -0.000162080643229434
380 1750 -0.000164695578667721
380 1752 -0.00666666666666667
380 1753 -0.00666666666666667
380 3733 -0.000435081057490305
380 3734 -0.000435057726202831
380 3781 -0.0166666666666667
380 3782 0.0
381 342 0.0
381 373 0.0
381 376 0.0
381 380 0.0
381 381 0.0295545368095917
381 386 0.0
381 387 0.0
381 388 0.0
381 389 0.0
381 391 0.0
381 398 0.0
381 1753 -0.000434813234051738
381 1754 -0.000435284874465938
381 1765 -0.000435061921280183
381 1766 -0.000435036465303411
381 1769 -0.000435006921432358
381 1770 -0.000435091457008392
381 1783 -0.00666666666666667
381 3735 -0.000139666404223664
381 3736 -0.000141527802484295
381 3745 -0.000139690885024778
381 3746 -0.000141247379876703
381 3757 -0.000139662076715158
381 3758 -0.000141589392729581
381 3765 -0.0166666666666667
381 3782 0.0
382 382 0.0333333333333333
382 3735 -0.0166666666666667
382 3782 -0.0166666666666667
383 383 0.0238543465439773
383 384 0.0
383 1755 -0.00666666666666667
383 3737 -0.0166666666666667
384 383 0.0
384 384 0.0420931657846551
384 386 0.0
384 387 0.0
384 1755 -0.00043504040824874
384 1756 -0.000435057978759971
384 1759 -0.00666666666666667
384 3737 -0.000139669857630702
384 3738 -0.000141634759721171
384 3739 -0.0166666666666667
384 3742 -0.0166666666666667
385 385 0.0133333333333333
385 1757 -0.00666666666666667
385 1760 -0.00666666666666667
386 342 0.0
386 381 0.0
386 384 0.0
386 386 0.0257458666890182
386 387 0.0
386 388 0.0
386 389 0.0
386 1757 -0.00043504835481283
386 1758 -0.000435050032579175
386 1759 0.0
386 1760 0.0
386 1763 -0.00666666666666667
386 3739 -0.000140555314552681
386 3740 -0.000140347413389892
386 3743 -0.0166666666666667
387 342 0.0
387 381 0.0
387 384 0.0
387 386 0.0
387 387 0.0255770740455285
387 391 0.0
387 392 0.0
387 1759 -0.000162065782294302
387 1760 -0.000164621303266334
387 1771 -0.00666666666666667
387 3741 -0.000435067722986518
387 3742 -0.000435071061130372
387 3751 -0.0166666666666667
388 342 0.0
388 381 0.0
388 386 0.0
388 388 0.0257826760506619
388 389 0.0
388 1761 -0.00666666666666667
388 1767 -0.000435036519090424
388 1768 -0.000435061867500153
388 3745 0.0
388 3746 0.0
388 3747 -0.00013967719678533
388 3748 -0.000139805680326739
388 3749 -0.0166666666666667
389 381 0.0
389 386 0.0
389 388 0.0
389 389 0.0320996072561336
389 1763 -0.000162062879664529
389 1764 -0.000164606984614506
389 1766 -0.00666666666666667
389 1767 -0.00666666666666667
389 3743 -0.000435069777018943
389 3744 -0.000435069007106325
389 3745 -0.0166666666666667
390 390 0.0333333333333333
390 3746 -0.0166666666666667
390 3747 -0.0166666666666667
391 342 0.0
391 381 0.0
391 387 0.0
391 391 0.0256629422996789
391 392 0.0
391 1769 -0.00666666666666667
391 1775 -0.000162063151808471
391 1776 -0.00016461938392985
391 3754 0.0
391 3755 -0.000435510762531135
391 3756 -0.000434627398233908
391 3757 -0.0166666666666667
392 342 0.0
392 387 0.0
392 391 0.0
392 392 0.0323107970182681
392 1771 -0.000435000210414427
392 1772 -0.000435098164960824
392 1774 -0.00666666666666667
392 1775 -0.00666666666666667
392 3751 -0.000139355161737402
392 3752 -0.000139851518567708
392 3753 -0.0166666666666667
392 3754 0.0
393 393 0.0333333333333333
393 3754 -0.0166666666666667
393 3755 -0.0166666666666667
394 394 0.0255642320215949
394 395 0.0
394 1777 -0.00666666666666667
394 1781 -0.000164358960620166
394 1782 -0.000164360413027223
394 3763 -0.0166666666666667
394 3779 -0.00043506499489676
394 3780 -0.000435073789167571
395 394 0.0
395 395 0.0319837065352638
395 396 0.0
395 1780 -0.00666666666666667
395 1781 -0.00666666666666667
395 1797 -0.000162062558227439
395 1798 -0.0001646053786738
395 3759 -0.000435069416060821
395 3760 -0.000435069368064916
395 3761 -0.0166666666666667
395 3762 0.0
395 3779 0.0
396 395 0.0
396 396 0.0256582283981556
396 398 0.0
396 1785 -0.00043503132436863
396 1786 -0.000435067061426646
396 1788 0.0
396 1797 -0.00666666666666667
396 3759 -0.0166666666666667
396 3767 -0.000139670749044937
396 3768 -0.000141639529816893
397 397 0.0333333333333333
397 3762 -0.0166666666666667
397 3779 -0.0166666666666667
398 381 0.0
398 396 0.0
398 398 0.0419833928488543
398 400 0.0
398 1783 -0.00016206464098303
398 1784 -0.000164616035944705
398 1787 -0.00666666666666667
398 1788 0.0
398 3765 -0.000435085659385656
398 3766 -0.000435053123899395
398 3767 -0.0166666666666667
398 3770 -0.0166666666666667
399 399 0.0133333333333333
399 1785 -0.00666666666666667
399 1788 -0.00666666666666667
400 398 0.0
400 400 0.0253691146856407
400 401 0.0
400 1787 -0.000435031048387666
400 1788 -0.000435067337357646
400 1789 -0.00666666666666667
400 3769 -0.000141639434640672
400 3770 -0.000139670732553277
400 3771 -0.0166666666666667
401 400 0.0
401 401 0.0319837065219249
401 403 0.0
401 1789 -0.000162062558200821
401 1790 -0.000164605379088547
401 1792 -0.00666666666666667
401 1793 -0.00666666666666667
401 3771 -0.000435069447260804
401 3772 -0.000435069336864924
401 3773 -0.0166666666666667
401 3774 0.0
401 3775 0.0
402 402 0.0333333333333333
402 3774 -0.0166666666666667
402 3775 -0.0166666666666667
403 401 0.0
403 403 0.0252163879413985
403 1793 -0.0001643589604521
403 1794 -0.00016436041302937
403 1795 -0.00666666666666667
403 3775 -0.000435064994893338
403 3776 -0.000435073789170993
403 3777 -0.0166666666666667
404 311 0.0
404 342 0.0
404 373 0.0
404 404 0.0320883554506867
404 405 0.0
404 407 0.0
404 435 0.0
404 442 0.0
404 443 0.0
404 449 0.0
404 450 0.0
404 451 0.0
404 453 0.0
404 454 0.0
404 497 0.0
404 1799 -0.00666666666666667
404 1875 -0.000435068239353669
404 1876 -0.000435030146223643
404 1885 -0.000435042566545896
404 1886 -0.000435055820629526
404 1897 -0.000435050067144334
404 1898 -0.000435048320247373
404 3783 -0.0166666666666667
404 3870 0.0
404 3873 -0.000139670978031983
404 3874 -0.000141641256924306
404 3877 -0.000139700455923196
404 3878 -0.000141288502520824
404 3905 -0.000139671204369829
404 3906 -0.000141637869293982
405 404 0.0
405 405 0.0419834123874497
405 407 0.0
405 408 0.0
405 1799 -0.000162064570152263
405 1800 -0.000164615390632404
405 1803 -0.00666666666666667
405 1804 0.0
405 3783 -0.00043506895266725
405 3784 -0.000435069831457875
405 3785 -0.0166666666666667
405 3788 -0.0166666666666667
406 406 0.0133333333333333
406 1801 -0.00666666666666667
406 1804 -0.00666666666666667
407 373 0.0
407 404 0.0
407 405 0.0
407 407 0.0255992190832709
407 411 0.0
407 412 0.0
407 1801 -0.000435032309673598
407 1802 -0.000435066076293283
407 1804 0.0
407 1811 -0.00666666666666667
407 3785 -0.000139672097032746
407 3786 -0.000141647330681414
407 3795 -0.0166666666666667
408 405 0.0
408 408 0.0253696592428569
408 409 0.0
408 1803 -0.00043503168464566
408 1804 -0.00043506670121336
408 1805 -0.00666666666666667
408 3787 -0.000141624421727624
408 3788 -0.000139668126615947
408 3789 -0.0166666666666667
409 408 0.0
409 409 0.0319694542100162
409 1805 -0.000162168008367529
409 1806 -0.000165130579339018
409 1808 -0.00666666666666667
409 1809 -0.00666666666666667
409 3789 -0.000435074178605607
409 3790 -0.000435064605447021
409 3791 -0.0166666666666667
410 410 0.0333333333333333
410 3792 -0.0166666666666667
410 3793 -0.0166666666666667
411 373 0.0
411 407 0.0
411 411 0.0320999013551653
411 412 0.0
411 1811 -0.000162060886928861
411 1812 -0.000164603197375618
411 1814 -0.00666666666666667
411 1815 -0.00666666666666667
411 3795 -0.000435066924736751
411 3796 -0.000435071859369655
411 3843 -0.0166666666666667
412 373 0.0
412 407 0.0
412 411 0.0
412 412 0.0297460083034186
412 418 0.0
412 419 0.0
412 420 0.0
412 422 0.0
412 423 0.0
412 429 0.0
412 1815 -0.000435059886891442
412 1816 -0.000435038499931221
412 1827 -0.0004350480249539
412 1828 -0.000435050362434787
412 1831 -0.000435057319269021
412 1832 -0.000435041067795716
412 1845 -0.00666666666666667
412 3797 -0.00013978493205116
412 3798 -0.000139919920565161
412 3807 -0.000139514021925975
412 3808 -0.00014073341070896
412 3816 0.0
412 3819 -0.000139513918934682
412 3820 -0.000140734728439723
412 3827 -0.0166666666666667
412 3843 0.0
412 3844 0.0
413 413 0.0333333333333333
413 3797 -0.0166666666666667
413 3844 -0.0166666666666667
414 414 0.0238543465439773
414 415 0.0
414 1817 -0.00666666666666667
414 3799 -0.0166666666666667
415 414 0.0
415 415 0.0419834091612526
415 417 0.0
415 418 0.0
415 1817 -0.000162064590679631
415 1818 -0.000164615528433844
415 1821 -0.00666666666666667
415 3799 -0.00043506937370603
415 3800 -0.000435069410419707
415 3801 -0.0166666666666667
415 3804 -0.0166666666666667
416 416 0.0133333333333333
416 1819 -0.00666666666666667
416 1822 -0.00666666666666667
417 415 0.0
417 417 0.0256578127707294
417 418 0.0
417 420 0.0
417 1819 -0.000435032046708115
417 1820 -0.000435066339213918
417 1821 0.0
417 1822 0.0
417 1825 -0.00666666666666667
417 3801 -0.000139672737807363
417 3802 -0.000141651023984395
417 3805 -0.0166666666666667
418 373 0.0
418 412 0.0
418 415 0.0
418 417 0.0
418 418 0.0256868183233515
418 420 0.0
418 423 0.0
418 1821 -0.000435031628760093
418 1822 -0.000435066757089098
418 1833 -0.00666666666666667
418 3803 -0.000141640091614956
418 3804 -0.000139670843240139
418 3813 -0.0166666666666667
419 373 0.0
419 412 0.0
419 419 0.0255642631986223
419 420 0.0
419 1823 -0.00666666666666667
419 1829 -0.000164429321124159
419 1830 -0.000164359494664249
419 3807 0.0
419 3808 0.0
419 3809 -0.000435053679420991
419 3810 -0.000435085103920473
419 3811 -0.0166666666666667
420 373 0.0
420 412 0.0
420 417 0.0
420 418 0.0
420 419 0.0
420 420 0.0320998066618511
420 1825 -0.000162061536519943
420 1826 -0.000164610432002777
420 1828 -0.00666666666666667
420 1829 -0.00666666666666667
420 3805 -0.000435065762561209
420 3806 -0.000435073021522693
420 3807 -0.0166666666666667
421 421 0.0333333333333333
421 3808 -0.0166666666666667
421 3809 -0.0166666666666667
422 412 0.0
422 422 0.0256789254737602
422 423 0.0
422 1831 -0.00666666666666667
422 1837 -0.000164351356240546
422 1838 -0.000164365831071159
422 3816 0.0
422 3817 -0.000435060404326353
422 3818 -0.000435078379542822
422 3819 -0.0166666666666667
423 373 0.0
423 412 0.0
423 418 0.0
423 422 0.0
423 423 0.0320996673803693
423 1833 -0.000162062471480618
423 1834 -0.000164605232829301
423 1836 -0.00666666666666667
423 1837 -0.00666666666666667
423 3813 -0.000435069239606208
423 3814 -0.000435069544519457
423 3815 -0.0166666666666667
423 3816 0.0
424 424 0.0333333333333333
424 3816 -0.0166666666666667
424 3817 -0.0166666666666667
425 425 0.0255452807933189
425 426 0.0
425 1839 -0.00666666666666667
425 1843 -0.000162114939474388
425 1844 -0.000164756390953382
425 3825 -0.0166666666666667
425 3841 -0.000431301130210841
425 3842 -0.000438790368590656
426 425 0.0
426 426 0.0318949372864687
426 427 0.0
426 1842 -0.00666666666666667
426 1843 -0.00666666666666667
426 1859 -0.000402874267847196
426 1860 -0.000462635021140101
426 3821 -0.000142980894195082
426 3822 -0.000158534109366702
426 3823 -0.0166666666666667
426 3824 0.0
426 3841 0.0
427 426 0.0
427 427 0.0255622073357968
427 429 0.0
427 1847 -0.000163035610806202
427 1848 -0.000530385316755896
427 1850 0.0
427 1859 -0.00666666666666667
427 3821 -0.0166666666666667
427 3829 -0.00014727055318589
427 3830 -0.00056470463002978
428 428 0.0333333333333333
428 3824 -0.0166666666666667
428 3841 -0.0166666666666667
429 412 0.0
429 427 0.0
429 429 0.0421663421972208
429 431 0.0
429 1845 -0.000162348325334987
429 1846 -0.000530720487223206
429 1849 -0.00666666666666667
429 1850 0.0
429 3827 -0.000435672877594181
429 3828 -0.000434464569145039
429 3829 -0.0166666666666667
429 3832 -0.0166666666666667
430 430 0.0133333333333333
430 1847 -0.00666666666666667
430 1850 -0.00666666666666667
431 429 0.0
431 431 0.0255893865594537
431 432 0.0
431 1849 -0.000399601245888043
431 1850 -0.000464883727737099
431 1851 -0.00666666666666667
431 3831 -0.000139439417619302
431 3832 -0.00013925809745767
431 3833 -0.0166666666666667
432 431 0.0
432 432 0.0319824507952651
432 434 0.0
432 1851 -0.000162063070557397
432 1852 -0.000164644944992451
432 1854 -0.00666666666666667
432 1855 -0.00666666666666667
432 3833 -0.000437167519508437
432 3834 -0.000432956808905805
432 3835 -0.0166666666666667
432 3836 0.0
432 3837 0.0
433 433 0.0333333333333333
433 3836 -0.0166666666666667
433 3837 -0.0166666666666667
434 432 0.0
434 434 0.0252771264643981
434 1855 -0.000434945178474267
434 1856 -0.000435153154698611
434 1857 -0.00666666666666667
434 3837 -0.000350105795458798
434 3838 -0.000144639853703508
434 3839 -0.0166666666666667
435 404 0.0
435 435 0.0320831993534843
435 436 0.0
435 442 0.0
435 443 0.0
435 466 0.0
435 473 0.0
435 474 0.0
435 479 0.0
435 480 0.0
435 481 0.0
435 485 0.0
435 497 0.0
435 1861 -0.00666666666666667
435 1937 -0.000435046673499388
435 1938 -0.000435051713864318
435 1947 -0.000435081853759712
435 1948 -0.000435016528292601
435 1959 -0.00043501725652859
435 1960 -0.000435081125759231
435 3845 -0.0166666666666667
435 3935 -0.000139679109099943
435 3936 -0.000141688401087266
435 3939 -0.000139708967713254
435 3940 -0.000141328092009716
435 3967 -0.000139679362257275
435 3968 -0.000141684595140731
436 435 0.0
436 436 0.0421628681647201
436 438 0.0
436 439 0.0
436 442 0.0
436 1861 -0.000162519833129987
436 1862 -0.000531411087991591
436 1865 -0.00666666666666667
436 1866 0.0
436 3845 -0.000435115740933038
436 3846 -0.000435023034878148
436 3847 -0.0166666666666667
436 3850 -0.0166666666666667
437 437 0.0133333333333333
437 1863 -0.00666666666666667
437 1866 -0.00666666666666667
438 436 0.0
438 438 0.0256970881787325
438 442 0.0
438 1863 -0.000435144823516234
438 1864 -0.000434953518101384
438 1866 0.0
438 1873 -0.00666666666666667
438 3847 -0.000139446455078796
438 3848 -0.000139967041096937
438 3857 -0.0166666666666667
439 436 0.0
439 439 0.0253811403923139
439 440 0.0
439 1865 -0.000162365832936652
439 1866 -0.000530094362034539
439 1867 -0.00666666666666667
439 3849 -0.000532899100111402
439 3850 -0.000274566803915549
439 3851 -0.0166666666666667
440 439 0.0
440 440 0.0318951479398703
440 1867 -0.000406469382005018
440 1868 -0.000459955463954967
440 1870 -0.00666666666666667
440 1871 -0.00666666666666667
440 3851 -0.000142934407180008
440 3852 -0.000158611617255727
440 3853 -0.0166666666666667
441 441 0.0333333333333333
441 3854 -0.0166666666666667
441 3855 -0.0166666666666667
442 404 0.0
442 435 0.0
442 436 0.0
442 438 0.0
442 442 0.0320995045206776
442 443 0.0
442 1866 0.0
442 1873 -0.000162061804589791
442 1874 -0.000164610667790356
442 1876 -0.00666666666666667
442 1877 -0.00666666666666667
442 3857 -0.000435539737045843
442 3858 -0.000434598338907064
442 3905 -0.0166666666666667
443 404 0.0
443 435 0.0
443 442 0.0
443 443 0.0292551256260865
443 449 0.0
443 451 0.0
443 453 0.0
443 454 0.0
443 460 0.0
443 497 0.0
443 1877 -0.000164225650703184
443 1878 -0.000164276003216508
443 1889 -0.000164512123628283
443 1890 -0.000162035062407616
443 1893 -0.000162035022530452
443 1894 -0.000164512138073066
443 1907 -0.00666666666666667
443 3859 -0.000435045514645459
443 3860 -0.000435093267670909
443 3869 -0.000435059916514922
443 3870 -0.000435078867325628
443 3881 -0.000435047474599787
443 3882 -0.000435091308001488
443 3889 -0.0166666666666667
443 3905 0.0
443 3906 0.0
444 444 0.0333333333333333
444 3859 -0.0166666666666667
444 3906 -0.0166666666666667
445 445 0.0238543465439773
445 446 0.0
445 1879 -0.00666666666666667
445 3861 -0.0166666666666667
446 445 0.0
446 446 0.0420929704392937
446 448 0.0
446 449 0.0
446 451 0.0
446 1879 -0.000435040486303127
446 1880 -0.000435057900712426
446 1883 -0.00666666666666667
446 1884 0.0
446 3861 -0.000139670791769998
446 3862 -0.00014164015255301
446 3863 -0.0166666666666667
446 3866 -0.0166666666666667
447 447 0.0133333333333333
447 1881 -0.00666666666666667
447 1884 -0.00666666666666667
448 446 0.0
448 448 0.0255502912848137
448 451 0.0
448 1881 -0.000162127332716032
448 1882 -0.000164582975768345
448 1884 0.0
448 1887 -0.00666666666666667
448 3863 -0.000435069301629179
448 3864 -0.000435069482496533
448 3867 -0.0166666666666667
449 404 0.0
449 443 0.0
449 446 0.0
449 449 0.0252823540608277
449 451 0.0
449 454 0.0
449 1883 -0.000166319286578936
449 1884 -0.000166854284080451
449 1895 -0.00666666666666667
449 3865 -0.000140348157921431
449 3866 -0.000140348150101401
449 3875 -0.0166666666666667
450 404 0.0
450 450 0.0255489628695773
450 451 0.0
450 1885 -0.00666666666666667
450 1891 -0.000162062504982868
450 1892 -0.000164604675325971
450 3870 0.0
450 3871 -0.000435044083341361
450 3872 -0.000435094698749262
450 3873 -0.0166666666666667
451 404 0.0
451 443 0.0
451 446 0.0
451 448 0.0
451 449 0.0
451 450 0.0
451 451 0.0322050771166806
451 1884 0.0
451 1887 -0.000435042888369999
451 1888 -0.000435055498826278
451 1890 -0.00666666666666667
451 1891 -0.00666666666666667
451 3867 -0.000139689488845466
451 3868 -0.000141748099793582
451 3869 -0.0166666666666667
451 3870 0.0
452 452 0.0333333333333333
452 3870 -0.0166666666666667
452 3871 -0.0166666666666667
453 404 0.0
453 443 0.0
453 453 0.0258528526278573
453 454 0.0
453 1893 -0.00666666666666667
453 1899 -0.000435048320032476
453 1900 -0.00043505006735923
453 3877 0.0
453 3878 0.0
453 3879 -0.000140209281941629
453 3880 -0.000140454288917711
453 3881 -0.0166666666666667
454 404 0.0
454 443 0.0
454 449 0.0
454 453 0.0
454 454 0.032099744577058
454 1895 -0.000162061944628342
454 1896 -0.000164602365207998
454 1898 -0.00666666666666667
454 1899 -0.00666666666666667
454 3875 -0.000435069350149236
454 3876 -0.000435069433976496
454 3877 -0.0166666666666667
455 455 0.0333333333333333
455 3878 -0.0166666666666667
455 3879 -0.0166666666666667
456 456 0.0256614731136071
456 457 0.0
456 1901 -0.00666666666666667
456 1905 -0.000433633789807636
456 1906 -0.000436454594099722
456 3887 -0.0166666666666667
456 3903 -0.00013975572113534
456 3904 -0.000141707074022605
457 456 0.0
457 457 0.0319693244861691
457 458 0.0
457 1904 -0.00666666666666667
457 1905 -0.00666666666666667
457 1921 -0.000162167689058371
457 1922 -0.000165135297873814
457 3883 -0.000435388198571751
457 3884 -0.000434750259582203
457 3885 -0.0166666666666667
457 3886 0.0
457 3903 0.0
458 457 0.0
458 458 0.0257682960389588
458 460 0.0
458 1909 -0.00041776680748706
458 1910 -0.000450926776155331
458 1912 0.0
458 1921 -0.00666666666666667
458 3883 -0.0166666666666667
458 3891 -0.000139720580991034
458 3892 -0.000139932855252092
459 459 0.0333333333333333
459 3886 -0.0166666666666667
459 3903 -0.0166666666666667
460 443 0.0
460 458 0.0
460 460 0.0418896816202266
460 462 0.0
460 1907 -0.00043540163966935
460 1908 -0.000434696125740513
460 1911 -0.00666666666666667
460 1912 0.0
460 3889 -0.000142602747236407
460 3890 -0.000158587582136585
460 3891 -0.0166666666666667
460 3894 -0.0166666666666667
461 461 0.0133333333333333
461 1909 -0.00666666666666667
461 1912 -0.00666666666666667
462 460 0.0
462 462 0.0252833739842332
462 463 0.0
462 1911 -0.000162927680984811
462 1912 -0.000530230645905115
462 1913 -0.00666666666666667
462 3893 -0.000546160785305607
462 3894 -0.00014744282121841
462 3895 -0.0166666666666667
463 462 0.0
463 463 0.0321707087558135
463 465 0.0
463 1913 -0.000162144345329803
463 1914 -0.000529813749349416
463 1916 -0.00666666666666667
463 1917 -0.00666666666666667
463 3895 -0.000400413696341282
463 3896 -0.000465646690569393
463 3897 -0.0166666666666667
463 3898 0.0
464 464 0.0333333333333333
464 465 0.0
464 3898 -0.0166666666666667
464 3899 -0.0166666666666667
465 463 0.0
465 464 0.0
465 465 0.0252392538736066
465 1917 -0.000407938480851945
465 1918 -0.000458837926585046
465 1919 -0.00666666666666667
465 3898 0.0
465 3899 -0.000140401212232881
465 3900 -0.000144639789846284
465 3901 -0.0166666666666667
466 435 0.0
466 466 0.0321074799924775
466 467 0.0
466 473 0.0
466 474 0.0
466 497 0.0
466 504 0.0
466 505 0.0
466 512 0.0
466 513 0.0
466 515 0.0
466 516 0.0
466 1923 -0.00666666666666667
466 1999 -0.000435021349583778
466 2000 -0.000435077033929117
466 2009 -0.000435075666026484
466 2010 -0.000435022717858529
466 2021 -0.000435034019503559
466 2022 -0.000435064366738566
466 3907 -0.0166666666666667
466 3997 -0.000139641248248435
466 3998 -0.000141469789611806
466 4001 -0.000139641455576729
466 4002 -0.000141466765709831
466 4029 -0.000139669171022265
466 4030 -0.000141145821435218
467 466 0.0
467 467 0.0421630568906256
467 469 0.0
467 470 0.0
467 473 0.0
467 1923 -0.000162508948582128
467 1924 -0.0005313701596967
467 1927 -0.00666666666666667
467 1928 0.0
467 3907 -0.000435293328042461
467 3908 -0.000434845262794538
467 3909 -0.0166666666666667
467 3912 -0.0166666666666667
468 468 0.0133333333333333
468 1925 -0.00666666666666667
468 1928 -0.00666666666666667
469 467 0.0
469 469 0.0256952418884623
469 473 0.0
469 1925 -0.000435111783295981
469 1926 -0.000434986584483092
469 1928 0.0
469 1935 -0.00666666666666667
469 3909 -0.000139450260715297
469 3910 -0.000139988379398403
469 3919 -0.0166666666666667
470 467 0.0
470 470 0.0253756621166979
470 471 0.0
470 1927 -0.000162383112105015
470 1928 -0.000529946733926805
470 1929 -0.00666666666666667
470 3911 -0.000535400152422887
470 3912 -0.000267380606913843
470 3913 -0.0166666666666667
471 470 0.0
471 471 0.031898567584894
471 1929 -0.000406001492103281
471 1930 -0.000460309450350815
471 1932 -0.00666666666666667
471 1933 -0.00666666666666667
471 3913 -0.00014281210877502
471 3914 -0.000158027855199465
471 3915 -0.0166666666666667
472 472 0.0333333333333333
472 3916 -0.0166666666666667
472 3917 -0.0166666666666667
473 435 0.0
473 466 0.0
473 467 0.0
473 469 0.0
473 473 0.0320998187031011
473 474 0.0
473 1928 0.0
473 1935 -0.000162059699334329
473 1936 -0.000164617694447567
473 1938 -0.00666666666666667
473 1939 -0.00666666666666667
473 3919 -0.000435531752463574
473 3920 -0.000434606347505285
473 3967 -0.0166666666666667
474 435 0.0
474 466 0.0
474 473 0.0
474 474 0.029240286150846
474 479 0.0
474 480 0.0
474 481 0.0
474 482 0.0
474 484 0.0
474 485 0.0
474 491 0.0
474 497 0.0
474 1939 -0.00016452846534017
474 1940 -0.000164384495696546
474 1951 -0.000164634692602427
474 1952 -0.000162067618394036
474 1955 -0.000162067628996523
474 1956 -0.000164634688823378
474 1969 -0.00666666666666667
474 3921 -0.000435044468242076
474 3922 -0.00043509431390953
474 3931 -0.000435073048109683
474 3932 -0.000435065735973592
474 3940 0.0
474 3943 -0.00043506543218333
474 3944 -0.000435073351892596
474 3951 -0.0166666666666667
474 3967 0.0
474 3968 0.0
475 475 0.0333333333333333
475 3921 -0.0166666666666667
475 3968 -0.0166666666666667
476 476 0.0238543465439773
476 477 0.0
476 1941 -0.00666666666666667
476 3923 -0.0166666666666667
477 476 0.0
477 477 0.0420929537555077
477 479 0.0
477 480 0.0
477 1941 -0.000435040505956392
477 1942 -0.000435057881060874
477 1945 -0.00666666666666667
477 3923 -0.000139670871572239
477 3924 -0.000141640613379916
477 3925 -0.0166666666666667
477 3928 -0.0166666666666667
478 478 0.0133333333333333
478 1943 -0.00666666666666667
478 1946 -0.00666666666666667
479 435 0.0
479 474 0.0
479 477 0.0
479 479 0.025550268271158
479 480 0.0
479 481 0.0
479 482 0.0
479 1943 -0.000162127506812547
479 1944 -0.000164583701911018
479 1945 0.0
479 1946 0.0
479 1949 -0.00666666666666667
479 3925 -0.000435069156529858
479 3926 -0.000435069627595704
479 3929 -0.0166666666666667
480 435 0.0
480 474 0.0
480 477 0.0
480 479 0.0
480 480 0.0252818652853034
480 485 0.0
480 1945 -0.000166319165150471
480 1946 -0.000166854154167309
480 1957 -0.00666666666666667
480 3927 -0.000140357102716024
480 3928 -0.000140357082074368
480 3937 -0.0166666666666667
481 435 0.0
481 474 0.0
481 479 0.0
481 481 0.0255494975093475
481 482 0.0
481 1947 -0.00666666666666667
481 1953 -0.000162058744590199
481 1954 -0.000164609059967339
481 3932 0.0
481 3933 -0.000435064995098834
481 3934 -0.00043507378896551
481 3935 -0.0166666666666667
482 474 0.0
482 479 0.0
482 481 0.0
482 482 0.0322088227833027
482 1949 -0.000435040907342144
482 1950 -0.000435057479709268
482 1952 -0.00666666666666667
482 1953 -0.00666666666666667
482 3929 -0.00013967124827608
482 3930 -0.000141642790859009
482 3931 -0.0166666666666667
482 3932 0.0
483 483 0.0333333333333333
483 3932 -0.0166666666666667
483 3933 -0.0166666666666667
484 474 0.0
484 484 0.0258545382043442
484 485 0.0
484 1955 -0.00666666666666667
484 1961 -0.000435081137126828
484 1962 -0.000435017245156463
484 3940 0.0
484 3941 -0.000140184006518703
484 3942 -0.00014042232279495
484 3943 -0.0166666666666667
485 435 0.0
485 474 0.0
485 480 0.0
485 484 0.0
485 485 0.0321001796355565
485 1957 -0.000162059007940064
485 1958 -0.000164602739721676
485 1960 -0.00666666666666667
485 1961 -0.00666666666666667
485 3937 -0.00043506415930177
485 3938 -0.000435074624737014
485 3939 -0.0166666666666667
485 3940 0.0
486 486 0.0333333333333333
486 3940 -0.0166666666666667
486 3941 -0.0166666666666667
487 487 0.0255844281592568
487 488 0.0
487 490 0.0
487 1963 -0.00666666666666667
487 1967 -0.000405969478945487
487 1968 -0.000460337024732347
487 3948 0.0
487 3949 -0.0166666666666667
487 3965 -0.000140442473137899
487 3966 -0.000144782161335539
488 487 0.0
488 488 0.0321601835592413
488 489 0.0
488 1966 -0.00666666666666667
488 1967 -0.00666666666666667
488 1983 -0.000162225051674325
488 1984 -0.000529778141458443
488 3945 -0.000371043726257224
488 3946 -0.00048629037933266
488 3947 -0.0166666666666667
488 3948 0.0
489 488 0.0
489 489 0.0257239982411412
489 1971 -0.000163258162677797
489 1972 -0.000532374011844484
489 1974 0.0
489 1983 -0.00666666666666667
489 3945 -0.0166666666666667
489 3953 -0.000448745061591117
489 3954 -0.000420615920070052
490 487 0.0
490 490 0.0333333333333333
490 3948 -0.0166666666666667
490 3965 -0.0166666666666667
491 474 0.0
491 491 0.04231847146052
491 493 0.0
491 1969 -0.000434976282613522
491 1970 -0.00043512207817196
491 1973 -0.00666666666666667
491 1974 0.0
491 3951 -0.00013925809745767
491 3952 -0.00013925809745767
491 3953 -0.0166666666666667
491 3956 -0.0166666666666667
492 492 0.0133333333333333
492 1971 -0.00666666666666667
492 1974 -0.00666666666666667
493 491 0.0
493 493 0.0251897443601685
493 494 0.0
493 1973 -0.000163022377118753
493 1974 -0.000528465266297689
493 1975 -0.00666666666666667
493 3955 -0.000143647586674343
493 3956 -0.000289422112454957
493 3957 -0.0166666666666667
494 493 0.0
494 494 0.031970286127134
494 496 0.0
494 1975 -0.000162166578290559
494 1976 -0.000165099058432878
494 1978 -0.00666666666666667
494 1979 -0.00666666666666667
494 3957 -0.000433838061791931
494 3958 -0.000436295790691586
494 3959 -0.0166666666666667
494 3960 0.0
494 3961 0.0
495 495 0.0333333333333333
495 3960 -0.0166666666666667
495 3961 -0.0166666666666667
496 494 0.0
496 496 0.0253132418625061
496 1979 -0.000433725919557807
496 1980 -0.000436363721932067
496 1981 -0.00666666666666667
496 3961 -0.000139757971222783
496 3962 -0.00014171820567091
496 3963 -0.0166666666666667
497 404 0.0
497 435 0.0
497 443 0.0
497 466 0.0
497 474 0.0
497 497 0.0312157365405992
497 498 0.0
497 504 0.0
497 535 0.0
497 536 0.0
497 541 0.0
497 542 0.0
497 543 0.0
497 546 0.0
497 547 0.0
497 714 0.0
497 776 0.0
497 869 0.0
497 1985 -0.00666666666666667
497 2061 -0.000164360410638445
497 2062 -0.000164359006270222
497 2071 -0.000162062558807452
497 2072 -0.000164605381125477
497 2083 -0.000164605381122262
497 2084 -0.000162062558816421
497 3969 -0.0166666666666667
497 4059 -0.000435069390908533
497 4060 -0.000435069393217205
497 4063 -0.000435069390223737
497 4064 -0.000435069393902001
497 4091 -0.000161601720479339
497 4092 -0.000162351552716187
498 497 0.0
498 498 0.042092970807794
498 500 0.0
498 501 0.0
498 504 0.0
498 1985 -0.000435040483790849
498 1986 -0.000435057903224485
498 1989 -0.00666666666666667
498 1990 0.0
498 3969 -0.000139670790012751
498 3970 -0.000141640142355812
498 3971 -0.0166666666666667
498 3974 -0.0166666666666667
499 499 0.0133333333333333
499 1987 -0.00666666666666667
499 1990 -0.00666666666666667
500 498 0.0
500 500 0.0256866648616451
500 504 0.0
500 1987 -0.000435049596668295
500 1988 -0.000435048790726423
500 1990 0.0
500 1997 -0.00666666666666667
500 3971 -0.000140356055867898
500 3972 -0.000140356063365803
500 3981 -0.0166666666666667
501 498 0.0
501 501 0.0252598190481393
501 502 0.0
501 1989 -0.000162062557266168
501 1990 -0.000164620130721841
501 1991 -0.00666666666666667
501 3973 -0.000435069477705366
501 3974 -0.000435069306420349
501 3975 -0.0166666666666667
502 501 0.0
502 502 0.0320929799686703
502 1991 -0.000435040499350135
502 1992 -0.000435057887666556
502 1994 -0.00666666666666667
502 1995 -0.00666666666666667
502 3975 -0.00013967074610245
502 3976 -0.000141639889164474
502 3977 -0.0166666666666667
503 503 0.0333333333333333
503 3978 -0.0166666666666667
503 3979 -0.0166666666666667
504 466 0.0
504 497 0.0
504 498 0.0
504 500 0.0
504 504 0.0321001296867379
504 505 0.0
504 1990 0.0
504 1997 -0.000162059344493046
504 1998 -0.000164603667382744
504 2000 -0.00666666666666667
504 2001 -0.00666666666666667
504 3981 -0.000435064765067236
504 3982 -0.000435074018990515
504 4029 -0.0166666666666667
504 4030 0.0
505 466 0.0
505 504 0.0
505 505 0.0296363951915997
505 512 0.0
505 513 0.0
505 515 0.0
505 516 0.0
505 522 0.0
505 2001 -0.000435077064835482
505 2002 -0.000435021318668024
505 2013 -0.000435056352038406
505 2014 -0.000435042035100298
505 2017 -0.000435043552264714
505 2018 -0.000435054834971316
505 2031 -0.00666666666666667
505 3983 -0.000140182361260137
505 3984 -0.000140419962900807
505 3993 -0.000139672366859798
505 3994 -0.000141647103173812
505 4005 -0.000139672261692974
505 4006 -0.000141648681442599
505 4013 -0.0166666666666667
505 4030 0.0
506 506 0.0333333333333333
506 3983 -0.0166666666666667
506 4030 -0.0166666666666667
507 507 0.0238543465439773
507 508 0.0
507 2003 -0.00666666666666667
507 3985 -0.0166666666666667
508 507 0.0
508 508 0.0419834140961603
508 510 0.0
508 511 0.0
508 2003 -0.000162064557104371
508 2004 -0.000164615474626227
508 2007 -0.00666666666666667
508 3985 -0.000435069323598363
508 3986 -0.000435069460527361
508 3987 -0.0166666666666667
508 3990 -0.0166666666666667
509 509 0.0133333333333333
509 2005 -0.00666666666666667
509 2008 -0.00666666666666667
510 508 0.0
510 510 0.0256581988626478
510 511 0.0
510 513 0.0
510 2005 -0.000435032241858439
510 2006 -0.000435066144096944
510 2007 0.0
510 2008 0.0
510 2011 -0.00666666666666667
510 3987 -0.000139670884426294
510 3988 -0.000141640335129922
510 3991 -0.0166666666666667
511 508 0.0
511 510 0.0
511 511 0.0256862275407308
511 513 0.0
511 516 0.0
511 2007 -0.000435031827990192
511 2008 -0.000435066557893877
511 2019 -0.00666666666666667
511 3989 -0.000141656453358156
511 3990 -0.000139673677795911
511 3999 -0.0166666666666667
512 466 0.0
512 505 0.0
512 512 0.0255647395300481
512 513 0.0
512 2009 -0.00666666666666667
512 2015 -0.000164343513344572
512 2016 -0.000164367623390297
512 3993 0.0
512 3994 0.0
512 3995 -0.000435058020368536
512 3996 -0.000435080763346489
512 3997 -0.0166666666666667
513 466 0.0
513 505 0.0
513 510 0.0
513 511 0.0
513 512 0.0
513 513 0.0320996742791538
513 516 0.0
513 2011 -0.000162062424733907
513 2012 -0.000164605235421495
513 2014 -0.00666666666666667
513 2015 -0.00666666666666667
513 3991 -0.000435069164848058
513 3992 -0.000435069619277516
513 3993 -0.0166666666666667
514 514 0.0333333333333333
514 3994 -0.0166666666666667
514 3995 -0.0166666666666667
515 466 0.0
515 505 0.0
515 515 0.0256787237707601
515 516 0.0
515 2017 -0.00666666666666667
515 2023 -0.00016498754721047
515 2024 -0.000164359000422479
515 4002 0.0
515 4003 -0.000435046365527534
515 4004 -0.000435092416913645
515 4005 -0.0166666666666667
516 466 0.0
516 505 0.0
516 511 0.0
516 513 0.0
516 515 0.0
516 516 0.032099994684638
516 2019 -0.000162060264459925
516 2020 -0.00016461123024344
516 2022 -0.00666666666666667
516 2023 -0.00666666666666667
516 3999 -0.000435064079024843
516 4000 -0.000435074705011247
516 4001 -0.0166666666666667
516 4002 0.0
517 517 0.0333333333333333
517 4002 -0.0166666666666667
517 4003 -0.0166666666666667
518 518 0.0256614590240232
518 519 0.0
518 2025 -0.00666666666666667
518 2029 -0.000435040783009246
518 2030 -0.000435057604031761
518 4011 -0.0166666666666667
518 4027 -0.000139674680734473
518 4028 -0.000141584640716005
519 518 0.0
519 519 0.0319837098932622
519 520 0.0
519 2028 -0.00666666666666667
519 2029 -0.00666666666666667
519 2045 -0.000162062535451855
519 2046 -0.000164605264611767
519 4007 -0.000435069380083256
519 4008 -0.000435069404042482
519 4009 -0.0166666666666667
519 4010 0.0
519 4027 0.0
520 519 0.0
520 520 0.0256582235323179
520 522 0.0
520 2033 -0.000435031817237568
520 2034 -0.000435066568644765
520 2036 0.0
520 2045 -0.00666666666666667
520 4007 -0.0166666666666667
520 4015 -0.000139670767304304
520 4016 -0.000141639655324462
521 521 0.0333333333333333
521 4010 -0.0166666666666667
521 4027 -0.0166666666666667
522 505 0.0
522 520 0.0
522 522 0.0419834109605792
522 524 0.0
522 2031 -0.000162064588603688
522 2032 -0.000164615514901263
522 2035 -0.00666666666666667
522 2036 0.0
522 4013 -0.000435066628630518
522 4014 -0.000435072155470965
522 4015 -0.0166666666666667
522 4018 -0.0166666666666667
523 523 0.0133333333333333
523 2033 -0.00666666666666667
523 2036 -0.00666666666666667
524 522 0.0
524 524 0.0253691040607966
524 525 0.0
524 2035 -0.000435031985152348
524 2036 -0.000435066400758953
524 2037 -0.00666666666666667
524 4017 -0.000141639719254381
524 4018 -0.000139670778383217
524 4019 -0.0166666666666667
525 524 0.0
525 525 0.0319837099126563
525 527 0.0
525 2037 -0.000162062535395594
525 2038 -0.000164605263979841
525 2040 -0.00666666666666667
525 2041 -0.00666666666666667
525 4019 -0.000435069359721299
525 4020 -0.000435069424404436
525 4021 -0.0166666666666667
525 4022 0.0
525 4023 0.0
526 526 0.0333333333333333
526 4022 -0.0166666666666667
526 4023 -0.0166666666666667
527 525 0.0
527 527 0.0253136149345605
527 2041 -0.000435040784478542
527 2042 -0.000435057602562589
527 2043 -0.00666666666666667
527 4023 -0.000139674680780887
527 4024 -0.000141584640975314
527 4025 -0.0166666666666667
528 528 0.0312157824691738
528 529 0.0
528 531 0.0
528 535 0.0
528 559 0.0
528 566 0.0
528 567 0.0
528 573 0.0
528 574 0.0
528 577 0.0
528 578 0.0
528 2047 -0.00666666666666667
528 2123 -0.000164360468540172
528 2124 -0.00016435967511383
528 2133 -0.00016206247495652
528 2134 -0.000164605418170935
528 2145 -0.000164605418982737
528 2146 -0.000162062472691372
528 4031 -0.0166666666666667
528 4121 -0.000435066535168477
528 4122 -0.00043507224893134
528 4125 -0.000435070730673722
528 4126 -0.000435068053446325
528 4153 -0.000161600618881619
528 4154 -0.000162354606074605
529 528 0.0
529 529 0.0420929613697931
529 531 0.0
529 532 0.0
529 2047 -0.000435041508530558
529 2048 -0.000435056878568975
529 2051 -0.00666666666666667
529 2052 0.0
529 4031 -0.000139670831173392
529 4032 -0.000141640396000909
529 4033 -0.0166666666666667
529 4036 -0.0166666666666667
530 530 0.0133333333333333
530 2049 -0.00666666666666667
530 2052 -0.00666666666666667
531 528 0.0
531 529 0.0
531 531 0.0256871012844455
531 535 0.0
531 2049 -0.000435049193102497
531 2050 -0.000435049194293034
531 2052 0.0
531 2059 -0.00666666666666667
531 4033 -0.000140348082156048
531 4034 -0.000140348096313297
531 4043 -0.0166666666666667
532 529 0.0
532 532 0.0252598188674288
532 533 0.0
532 2051 -0.000162062558223756
532 2052 -0.000164605375314667
532 2053 -0.00666666666666667
532 4035 -0.000435069554992272
532 4036 -0.000435069229133382
532 4037 -0.0166666666666667
533 532 0.0
533 533 0.0320929799834978
533 2053 -0.000435040497369072
533 2054 -0.000435057889647447
533 2056 -0.00666666666666667
533 2057 -0.00666666666666667
533 4037 -0.00013967074603941
533 4038 -0.000141639888769111
533 4039 -0.0166666666666667
534 534 0.0333333333333333
534 4040 -0.0166666666666667
534 4041 -0.0166666666666667
535 497 0.0
535 528 0.0
535 531 0.0
535 535 0.0320996579186693
535 536 0.0
535 559 0.0
535 590 0.0
535 621 0.0
535 652 0.0
535 655 0.0
535 686 0.0
535 714 0.0
535 2059 -0.000162062535431107
535 2060 -0.000164605264643441
535 2062 -0.00666666666666667
535 2063 -0.00666666666666667
535 4043 -0.000435069387915653
535 4044 -0.000435069396210086
535 4091 -0.0166666666666667
535 4092 0.0
536 497 0.0
536 535 0.0
536 536 0.0295485029193945
536 541 0.0
536 542 0.0
536 543 0.0
536 544 0.0
536 546 0.0
536 553 0.0
536 714 0.0
536 776 0.0
536 869 0.0
536 2063 -0.000435040782988183
536 2064 -0.000435057604052822
536 2075 -0.000435050784134681
536 2076 -0.000435047603248173
536 2079 -0.000435040480225729
536 2080 -0.000435057906789294
536 2093 -0.00666666666666667
536 4045 -0.000139674686777478
536 4046 -0.000141584559821053
536 4055 -0.000139700198059466
536 4056 -0.00014128746776757
536 4067 -0.000139670743908197
536 4068 -0.000141639876221824
536 4075 -0.0166666666666667
536 4092 0.0
537 537 0.0333333333333333
537 4045 -0.0166666666666667
537 4092 -0.0166666666666667
538 538 0.0238543465439773
538 539 0.0
538 2065 -0.00666666666666667
538 4047 -0.0166666666666667
539 538 0.0
539 539 0.0420929804452525
539 541 0.0
539 542 0.0
539 2065 -0.000435040480198357
539 2066 -0.000435057906816663
539 2069 -0.00666666666666667
539 2070 0.0
539 4047 -0.000139670743890679
539 4048 -0.000141639876120319
539 4049 -0.0166666666666667
539 4052 -0.0166666666666667
540 540 0.0133333333333333
540 2067 -0.00666666666666667
540 2070 -0.00666666666666667
541 497 0.0
541 536 0.0
541 539 0.0
541 541 0.0257458287848717
541 542 0.0
541 543 0.0
541 544 0.0
541 2067 -0.000435049192310166
541 2068 -0.000435049195085365
541 2070 0.0
541 2073 -0.00666666666666667
541 4049 -0.000140348087305804
541 4050 -0.000140348087381334
541 4053 -0.0166666666666667
542 497 0.0
542 536 0.0
542 539 0.0
542 541 0.0
542 542 0.0255775463585185
542 546 0.0
542 547 0.0
542 2069 -0.000162062559106552
542 2070 -0.000164605382365713
542 2081 -0.00666666666666667
542 4051 -0.000435069392938043
542 4052 -0.000435069391187695
542 4061 -0.0166666666666667
543 497 0.0
543 536 0.0
543 541 0.0
543 543 0.0257404831595632
543 544 0.0
543 2071 -0.00666666666666667
543 2077 -0.000435047603248168
543 2078 -0.000435050784134686
543 4056 0.0
543 4057 -0.000140178145950844
543 4058 -0.000140415043811155
543 4059 -0.0166666666666667
544 536 0.0
544 541 0.0
544 543 0.0
544 544 0.0320997361629842
544 2073 -0.000162062001820446
544 2074 -0.000164602607028427
544 2076 -0.00666666666666667
544 2077 -0.00666666666666667
544 4053 -0.000435069391191658
544 4054 -0.00043506939293408
544 4055 -0.0166666666666667
544 4056 0.0
545 545 0.0333333333333333
545 4056 -0.0166666666666667
545 4057 -0.0166666666666667
546 497 0.0
546 536 0.0
546 542 0.0
546 546 0.0256633780153988
546 547 0.0
546 2079 -0.00666666666666667
546 2085 -0.000162062559114419
546 2086 -0.00016460538260321
546 4064 0.0
546 4065 -0.000435069390007496
546 4066 -0.000435069394118242
546 4067 -0.0166666666666667
547 497 0.0
547 542 0.0
547 546 0.0
547 547 0.032208928135831
547 2081 -0.000435040480222319
547 2082 -0.000435057906792703
547 2084 -0.00666666666666667
547 2085 -0.00666666666666667
547 4061 -0.00013967074549935
547 4062 -0.000141639885405698
547 4063 -0.0166666666666667
547 4064 0.0
548 548 0.0333333333333333
548 4064 -0.0166666666666667
548 4065 -0.0166666666666667
549 549 0.0256614590292298
549 550 0.0
549 2087 -0.00666666666666667
549 2091 -0.00043504078218397
549 2092 -0.000435057604856967
549 4073 -0.0166666666666667
549 4089 -0.000139674680709099
549 4090 -0.000141584640574244
550 549 0.0
550 550 0.0319837098823795
550 551 0.0
550 2090 -0.00666666666666667
550 2091 -0.00666666666666667
550 2107 -0.000162062535484636
550 2108 -0.000164605264966749
550 4069 -0.000435069391188885
550 4070 -0.000435069392936854
550 4071 -0.0166666666666667
550 4072 0.0
550 4089 0.0
551 550 0.0
551 551 0.0256582249674997
551 553 0.0
551 2095 -0.000435031767249489
551 2096 -0.000435066618624126
551 2098 0.0
551 2107 -0.00666666666666667
551 4069 -0.0166666666666667
551 4077 -0.000139670761454478
551 4078 -0.000141639617486803
552 552 0.0333333333333333
552 4072 -0.0166666666666667
552 4089 -0.0166666666666667
553 536 0.0
553 551 0.0
553 553 0.0419834073409849
553 555 0.0
553 2093 -0.000162064603069876
553 2094 -0.000164615562666949
553 2097 -0.00666666666666667
553 2098 0.0
553 4075 -0.00043506939115468
553 4076 -0.000435069392971058
553 4077 -0.0166666666666667
553 4080 -0.0166666666666667
554 554 0.0133333333333333
554 2095 -0.00666666666666667
554 2098 -0.00666666666666667
555 553 0.0
555 555 0.0253691078101384
555 556 0.0
555 2097 -0.000435031759838531
555 2098 -0.000435066626033651
555 2099 -0.00666666666666667
555 4079 -0.000141639617487036
555 4080 -0.000139670761454519
555 4081 -0.0166666666666667
556 555 0.0
556 556 0.0319837098823796
556 558 0.0
556 2099 -0.000162062535484636
556 2100 -0.000164605264966747
556 2102 -0.00666666666666667
556 2103 -0.00666666666666667
556 4081 -0.00043506939118881
556 4082 -0.000435069392936929
556 4083 -0.0166666666666667
556 4084 0.0
556 4085 0.0
557 557 0.0333333333333333
557 4084 -0.0166666666666667
557 4085 -0.0166666666666667
558 556 0.0
558 558 0.0253136149492912
558 2103 -0.000435040782183975
558 2104 -0.000435057604856963
558 2105 -0.00666666666666667
558 4085 -0.000139674680709099
558 4086 -0.000141584640574245
558 4087 -0.0166666666666667
559 528 0.0
559 535 0.0
559 559 0.0320885977646231
559 560 0.0
559 566 0.0
559 567 0.0
559 590 0.0
559 597 0.0
559 598 0.0
559 604 0.0
559 605 0.0
559 606 0.0
559 608 0.0
559 609 0.0
559 2109 -0.00666666666666667
559 2185 -0.000435043942803598
559 2186 -0.000435054444453764
559 2195 -0.000435040444163285
559 2196 -0.000435057942848581
559 2207 -0.000435057923606845
559 2208 -0.000435040463406708
559 4093 -0.0166666666666667
559 4180 0.0
559 4183 -0.000139670682267266
559 4184 -0.000141639519995228
559 4187 -0.000139670722089359
559 4188 -0.000141638922827194
559 4215 -0.000139700128428728
559 4216 -0.000141287229661082
560 559 0.0
560 560 0.0419834115616333
560 562 0.0
560 563 0.0
560 566 0.0
560 2109 -0.00016206457374072
560 2110 -0.000164615418100807
560 2113 -0.00666666666666667
560 2114 0.0
560 4093 -0.000435069503154384
560 4094 -0.000435069280971315
560 4095 -0.0166666666666667
560 4098 -0.0166666666666667
561 561 0.0133333333333333
561 2111 -0.00666666666666667
561 2114 -0.00666666666666667
562 560 0.0
562 562 0.0255991790107528
562 566 0.0
562 2111 -0.000435032332380833
562 2112 -0.000435066053589888
562 2114 0.0
562 2121 -0.00666666666666667
562 4095 -0.000139672289609428
562 4096 -0.000141648440824267
562 4105 -0.0166666666666667
563 560 0.0
563 563 0.025369659786574
563 564 0.0
563 2113 -0.000435031592540387
563 2114 -0.000435066793302426
563 2115 -0.00666666666666667
563 4097 -0.000141624407193421
563 4098 -0.000139668124261627
563 4099 -0.0166666666666667
564 563 0.0
564 564 0.0319694542079494
564 2115 -0.000162168008363252
564 2116 -0.000165130579415455
564 2118 -0.00666666666666667
564 2119 -0.00666666666666667
564 4099 -0.000435074183386578
564 4100 -0.000435064600665905
564 4101 -0.0166666666666667
565 565 0.0333333333333333
565 4102 -0.0166666666666667
565 4103 -0.0166666666666667
566 528 0.0
566 559 0.0
566 560 0.0
566 562 0.0
566 566 0.0320997612467455
566 567 0.0
566 2114 0.0
566 2121 -0.000162061842522603
566 2122 -0.00016460950505469
566 2124 -0.00666666666666667
566 2125 -0.00666666666666667
566 4105 -0.000435066580651088
566 4106 -0.000435072203449549
566 4153 -0.0166666666666667
567 528 0.0
567 559 0.0
567 566 0.0
567 567 0.029664378871365
567 572 0.0
567 573 0.0
567 574 0.0
567 575 0.0
567 577 0.0
567 584 0.0
567 2125 -0.000435047234874819
567 2126 -0.000435051152501487
567 2137 -0.000435033610082051
567 2138 -0.000435064776097052
567 2141 -0.000435057725512487
567 2142 -0.000435040661518347
567 2155 -0.00666666666666667
567 4107 -0.000139516419388417
567 4108 -0.000140700386591277
567 4117 -0.000139535529617076
567 4118 -0.000140533144432324
567 4129 -0.000139514756609392
567 4130 -0.000140739566181215
567 4137 -0.0166666666666667
567 4153 0.0
567 4154 0.0
568 568 0.0333333333333333
568 4107 -0.0166666666666667
568 4154 -0.0166666666666667
569 569 0.0238543465439773
569 570 0.0
569 2127 -0.00666666666666667
569 4109 -0.0166666666666667
570 569 0.0
570 570 0.0420929717450222
570 572 0.0
570 573 0.0
570 2127 -0.000435040488105227
570 2128 -0.000435057898910483
570 2131 -0.00666666666666667
570 4109 -0.000139670785511789
570 4110 -0.00014164011645057
570 4111 -0.0166666666666667
570 4114 -0.0166666666666667
571 571 0.0133333333333333
571 2129 -0.00666666666666667
571 2132 -0.00666666666666667
572 567 0.0
572 570 0.0
572 572 0.0257455320601093
572 573 0.0
572 574 0.0
572 575 0.0
572 2129 -0.000435049476964799
572 2130 -0.000435048910430331
572 2131 0.0
572 2132 0.0
572 2135 -0.00666666666666667
572 4111 -0.000140353492284305
572 4112 -0.00014035349909078
572 4115 -0.0166666666666667
573 528 0.0
573 567 0.0
573 570 0.0
573 572 0.0
573 573 0.0255775497212881
573 574 0.0
573 577 0.0
573 578 0.0
573 2131 -0.000162062536856723
573 2132 -0.000164615649658616
573 2143 -0.00666666666666667
573 4113 -0.000435069470216687
573 4114 -0.000435069313909032
573 4123 -0.0166666666666667
574 528 0.0
574 567 0.0
574 572 0.0
574 573 0.0
574 574 0.0257402390203077
574 575 0.0
574 2133 -0.00666666666666667
574 2139 -0.00043506483346321
574 2140 -0.000435033552706628
574 4117 0.0
574 4118 0.0
574 4119 -0.000140183011740982
574 4120 -0.000140419805775519
574 4121 -0.0166666666666667
575 567 0.0
575 572 0.0
575 574 0.0
575 575 0.0320999657878337
575 2135 -0.000162060451582619
575 2136 -0.000164603101435013
575 2138 -0.00666666666666667
575 2139 -0.00666666666666667
575 4115 -0.000435066224778557
575 4116 -0.000435072559315324
575 4117 -0.0166666666666667
576 576 0.0333333333333333
576 4118 -0.0166666666666667
576 4119 -0.0166666666666667
577 528 0.0
577 567 0.0
577 573 0.0
577 577 0.0256636236446474
577 578 0.0
577 2141 -0.00666666666666667
577 2147 -0.000162060895421523
577 2148 -0.000164609527091146
577 4125 0.0
577 4126 0.0
577 4127 -0.000435065887914216
577 4128 -0.000435072896172527
577 4129 -0.0166666666666667
578 528 0.0
578 573 0.0
578 577 0.0
578 578 0.0322086798404708
578 2143 -0.000435040745621058
578 2144 -0.00043505764141679
578 2146 -0.00666666666666667
578 2147 -0.00666666666666667
578 4123 -0.000139671934380401
578 4124 -0.000141646750301239
578 4125 -0.0166666666666667
579 579 0.0333333333333333
579 4126 -0.0166666666666667
579 4127 -0.0166666666666667
580 580 0.0255452807944169
580 581 0.0
580 2149 -0.00666666666666667
580 2153 -0.000162114939472545
580 2154 -0.00016475639092085
580 4135 -0.0166666666666667
580 4151 -0.000431301129654014
580 4152 -0.000438790369133318
581 580 0.0
581 581 0.0318949372706568
581 582 0.0
581 2152 -0.00666666666666667
581 2153 -0.00666666666666667
581 2169 -0.000402874286571234
581 2170 -0.000462635007412455
581 4131 -0.000142980894581814
581 4132 -0.000158534112254571
581 4133 -0.0166666666666667
581 4134 0.0
581 4151 0.0
582 581 0.0
582 582 0.0255622073245997
582 584 0.0
582 2157 -0.000163035609389389
582 2158 -0.000530385314277835
582 2160 0.0
582 2169 -0.00666666666666667
582 4131 -0.0166666666666667
582 4139 -0.000147270534866566
582 4140 -0.000564704633717408
583 583 0.0333333333333333
583 4134 -0.0166666666666667
583 4151 -0.0166666666666667
584 567 0.0
584 582 0.0
584 584 0.04216634231707
584 586 0.0
584 2155 -0.000162348328933429
584 2156 -0.000530720471615548
584 2159 -0.00666666666666667
584 2160 0.0
584 4137 -0.000435670020554572
584 4138 -0.000434467438812184
584 4139 -0.0166666666666667
584 4142 -0.0166666666666667
585 585 0.0133333333333333
585 2157 -0.00666666666666667
585 2160 -0.00666666666666667
586 584 0.0
586 586 0.025589386727203
586 587 0.0
586 2159 -0.000399601863075062
586 2160 -0.000464883291727197
586 2161 -0.00666666666666667
586 4141 -0.000139439401685824
586 4142 -0.00013925809745767
586 4143 -0.0166666666666667
587 586 0.0
587 587 0.0319824508284425
587 589 0.0
587 2161 -0.000162063070476976
587 2162 -0.000164644943926219
587 2164 -0.00666666666666667
587 2165 -0.00666666666666667
587 4143 -0.000437167482025401
587 4144 -0.000432956846913321
587 4145 -0.0166666666666667
587 4146 0.0
587 4147 0.0
588 588 0.0333333333333333
588 4146 -0.0166666666666667
588 4147 -0.0166666666666667
589 587 0.0
589 589 0.0252771264598302
589 2165 -0.000434945180954293
589 2166 -0.000435153152221171
589 2167 -0.00666666666666667
589 4147 -0.000350105792551318
589 4148 -0.000144639853967615
589 4149 -0.0166666666666667
590 535 0.0
590 559 0.0
590 590 0.0310595659754697
590 591 0.0
590 597 0.0
590 598 0.0
590 621 0.0
590 628 0.0
590 629 0.0
590 636 0.0
590 637 0.0
590 639 0.0
590 640 0.0
590 2171 -0.00666666666666667
590 2247 -0.000167002100358977
590 2248 -0.000162540956180644
590 2257 -0.00016254233439428
590 2258 -0.000167001746375184
590 2269 -0.00016668622403383
590 2270 -0.000166616778531178
590 4155 -0.0166666666666667
590 4245 -0.000435495844207703
590 4246 -0.00043464234485701
590 4249 -0.000160852239681985
590 4250 -0.000161650172616747
590 4277 -0.000435279548009691
590 4278 -0.000434859088315805
591 590 0.0
591 591 0.0421404522783956
591 593 0.0
591 594 0.0
591 597 0.0
591 2171 -0.000415928551473748
591 2172 -0.000452437222882242
591 2175 -0.00666666666666667
591 2176 0.0
591 4155 -0.000143972810900854
591 4156 -0.000558385319861011
591 4157 -0.0166666666666667
591 4160 -0.0166666666666667
592 592 0.0133333333333333
592 2173 -0.00666666666666667
592 2176 -0.00666666666666667
593 591 0.0
593 593 0.0256049312238145
593 597 0.0
593 2173 -0.000410333854430279
593 2174 -0.00045697712384937
593 2176 0.0
593 2183 -0.00666666666666667
593 4157 -0.000139937822338345
593 4158 -0.000141801732328177
593 4167 -0.0166666666666667
594 591 0.0
594 594 0.0253040222377562
594 595 0.0
594 2175 -0.000349138128782108
594 2176 -0.000493489859954413
594 2177 -0.00666666666666667
594 4159 -0.000143597578982917
594 4160 -0.000140417715032831
594 4161 -0.0166666666666667
595 594 0.0
595 595 0.0319703070887365
595 2177 -0.000162165456183634
595 2178 -0.000165141512110284
595 2180 -0.00666666666666667
595 2181 -0.00666666666666667
595 4161 -0.000434071259447731
595 4162 -0.000436064294450999
595 4163 -0.0166666666666667
596 596 0.0333333333333333
596 4164 -0.0166666666666667
596 4165 -0.0166666666666667
597 559 0.0
597 590 0.0
597 591 0.0
597 593 0.0
597 597 0.0320998325318407
597 598 0.0
597 2183 -0.00016206242656709
597 2184 -0.000164599684884186
597 2186 -0.00666666666666667
597 2187 -0.00666666666666667
597 4167 -0.000434780916834728
597 4168 -0.000435357601613535
597 4215 -0.0166666666666667
597 4216 0.0
598 559 0.0
598 590 0.0
598 597 0.0
598 598 0.0296374388638415
598 604 0.0
598 606 0.0
598 608 0.0
598 609 0.0
598 615 0.0
598 2187 -0.00043505444443695
598 2188 -0.000435043942820412
598 2199 -0.000435057935435147
598 2200 -0.00043504045157737
598 2203 -0.000435040431638603
598 2204 -0.000435057955372165
598 2217 -0.00666666666666667
598 4169 -0.000140177592469087
598 4170 -0.000140414345842646
598 4179 -0.000139670572892314
598 4180 -0.000141638062327427
598 4191 -0.000139670533104681
598 4192 -0.000141638658891901
598 4199 -0.0166666666666667
598 4216 0.0
599 599 0.0333333333333333
599 4169 -0.0166666666666667
599 4216 -0.0166666666666667
600 600 0.0238543465439773
600 601 0.0
600 2189 -0.00666666666666667
600 4171 -0.0166666666666667
601 600 0.0
601 601 0.0419834073379218
601 603 0.0
601 604 0.0
601 2189 -0.00016206460309085
601 2190 -0.000164615562771554
601 2193 -0.00666666666666667
601 4171 -0.000435069391154579
601 4172 -0.000435069392971159
601 4173 -0.0166666666666667
601 4176 -0.0166666666666667
602 602 0.0133333333333333
602 2191 -0.00666666666666667
602 2194 -0.00666666666666667
603 601 0.0
603 603 0.025658225236689
603 604 0.0
603 606 0.0
603 2191 -0.000435031767124851
603 2192 -0.000435066618748742
603 2193 0.0
603 2194 0.0
603 2197 -0.00666666666666667
603 4173 -0.000139670760166673
603 4174 -0.000141639610050857
603 4177 -0.0166666666666667
604 559 0.0
604 598 0.0
604 601 0.0
604 603 0.0
604 604 0.025686835724673
604 606 0.0
604 609 0.0
604 2193 -0.000435031759684572
604 2194 -0.000435066626187582
604 2205 -0.00666666666666667
604 4175 -0.000141639611820287
604 4176 -0.000139670760473279
604 4185 -0.0166666666666667
605 559 0.0
605 605 0.0255642315719875
605 606 0.0
605 2195 -0.00666666666666667
605 2201 -0.000164358967946371
605 2202 -0.000164360426857549
605 4180 0.0
605 4181 -0.000435065005443446
605 4182 -0.000435073778621179
605 4183 -0.0166666666666667
606 559 0.0
606 598 0.0
606 603 0.0
606 604 0.0
606 605 0.0
606 606 0.0320996541101559
606 2197 -0.000162062561393839
606 2198 -0.000164605394042161
606 2200 -0.00666666666666667
606 2201 -0.00666666666666667
606 4177 -0.000435069393628181
606 4178 -0.000435069390497557
606 4179 -0.0166666666666667
606 4180 0.0
607 607 0.0333333333333333
607 4180 -0.0166666666666667
607 4181 -0.0166666666666667
608 559 0.0
608 598 0.0
608 608 0.0256786736305052
608 609 0.0
608 2203 -0.00666666666666667
608 2209 -0.000164358974674477
608 2210 -0.00016436043160141
608 4188 0.0
608 4189 -0.000435065002826116
608 4190 -0.000435073781238436
608 4191 -0.0166666666666667
609 559 0.0
609 598 0.0
609 604 0.0
609 608 0.0
609 609 0.0320996542492567
609 2205 -0.000162062560447055
609 2206 -0.000164605389320235
609 2208 -0.00666666666666667
609 2209 -0.00666666666666667
609 4185 -0.000435069393052232
609 4186 -0.000435069391073506
609 4187 -0.0166666666666667
609 4188 0.0
610 610 0.0333333333333333
610 4188 -0.0166666666666667
610 4189 -0.0166666666666667
611 611 0.025498006788364
611 612 0.0
611 2211 -0.00666666666666667
611 2215 -0.000174566226528932
611 2216 -0.000167453071908171
611 4197 -0.0166666666666667
611 4213 -0.000434571088711365
611 4214 -0.000435566874652637
612 611 0.0
612 612 0.031986697359441
612 613 0.0
612 614 0.0
612 2214 -0.00666666666666667
612 2215 -0.00666666666666667
612 2231 -0.000162042399164606
612 2232 -0.000164505035934296
612 4193 -0.000435090507624199
612 4194 -0.000435048275086066
612 4195 -0.0166666666666667
612 4213 0.0
613 612 0.0
613 613 0.0256606788604577
613 615 0.0
613 2219 -0.000435027295434021
613 2220 -0.000435071089558342
613 2222 0.0
613 2231 -0.00666666666666667
613 4193 -0.0166666666666667
613 4201 -0.000139659157768775
613 4202 -0.000141572594197269
614 612 0.0
614 614 0.0333333333333333
614 4195 0.0
614 4196 -0.0166666666666667
614 4213 -0.0166666666666667
615 598 0.0
615 613 0.0
615 615 0.041983349328652
615 617 0.0
615 2217 -0.000162064998742904
615 2218 -0.000164617536966824
615 2221 -0.00666666666666667
615 2222 0.0
615 4199 -0.000435069781984935
615 4200 -0.00043506900214032
615 4201 -0.0166666666666667
615 4204 -0.0166666666666667
616 616 0.0133333333333333
616 2219 -0.00666666666666667
616 2222 -0.00666666666666667
617 615 0.0
617 617 0.0253728412360506
617 618 0.0
617 2221 -0.000435031391217051
617 2222 -0.000435066994590016
617 2223 -0.00666666666666667
617 4203 -0.000141538198842384
617 4204 -0.000139653197525386
617 4205 -0.0166666666666667
618 617 0.0
618 618 0.0319851023368493
618 619 0.0
618 620 0.0
618 2223 -0.000162052976422444
618 2224 -0.000164557847410659
618 2226 -0.00666666666666667
618 2227 -0.00666666666666667
618 4205 -0.000435101709399811
618 4206 -0.000435037071408027
618 4207 -0.0166666666666667
618 4209 0.0
619 618 0.0
619 619 0.0333333333333333
619 4207 0.0
619 4208 -0.0166666666666667
619 4209 -0.0166666666666667
620 618 0.0
620 620 0.0251600082854457
620 2227 -0.000170162251258758
620 2228 -0.000166825903638245
620 2229 -0.00666666666666667
620 4209 -0.000434677413069657
620 4210 -0.000435460867464844
620 4211 -0.0166666666666667
621 535 0.0
621 590 0.0
621 621 0.0312157350718398
621 622 0.0
621 628 0.0
621 629 0.0
621 655 0.0
621 659 0.0
621 660 0.0
621 667 0.0
621 668 0.0
621 670 0.0
621 671 0.0
621 2233 -0.00666666666666667
621 2309 -0.000164360427767194
621 2310 -0.000164359021906931
621 2319 -0.00016206256210806
621 2320 -0.000164605397579013
621 2331 -0.000164605397577961
621 2332 -0.000162062562110997
621 4217 -0.0166666666666667
621 4307 -0.0004350693914236
621 4308 -0.000435069392702138
621 4311 -0.000435069391344719
621 4312 -0.000435069392781019
621 4339 -0.000161601715880124
621 4340 -0.000162351548531822
622 621 0.0
622 622 0.0420931147064136
622 624 0.0
622 625 0.0
622 628 0.0
622 2233 -0.000435040441298521
622 2234 -0.000435057945713094
622 2237 -0.00666666666666667
622 4217 -0.00013967010169264
622 4218 -0.000141636168849436
622 4219 -0.0166666666666667
622 4222 -0.0166666666666667
623 623 0.0133333333333333
623 2235 -0.00666666666666667
623 2238 -0.00666666666666667
624 622 0.0
624 624 0.0254910621183638
624 625 0.0
624 628 0.0
624 2235 -0.000162131095725142
624 2236 -0.000164599730797555
624 2237 0.0
624 2238 0.0
624 2245 -0.00666666666666667
624 4219 -0.000435070601601427
624 4220 -0.000435068182519665
624 4229 -0.0166666666666667
625 622 0.0
625 624 0.0
625 625 0.0249645250281323
625 626 0.0
625 2237 -0.000166319227572209
625 2238 -0.000166854118797605
625 2239 -0.00666666666666667
625 4221 -0.000140350019130284
625 4222 -0.000140500665652293
625 4223 -0.0166666666666667
626 625 0.0
626 626 0.031978484730889
626 2239 -0.000162099247780078
626 2240 -0.000164789517015929
626 2242 -0.00666666666666667
626 2243 -0.00666666666666667
626 4223 -0.000435068213377728
626 4224 -0.000435070570743591
626 4225 -0.0166666666666667
627 627 0.0333333333333333
627 4226 -0.0166666666666667
627 4227 -0.0166666666666667
628 590 0.0
628 621 0.0
628 622 0.0
628 624 0.0
628 628 0.0323098477771484
628 629 0.0
628 2245 -0.000435000220488569
628 2246 -0.000435098154891607
628 2248 -0.00666666666666667
628 2249 -0.00666666666666667
628 4229 -0.000139356858353545
628 4230 -0.000139859905327303
628 4277 -0.0166666666666667
628 4278 0.0
629 590 0.0
629 621 0.0
629 628 0.0
629 629 0.028672864583473
629 636 0.0
629 637 0.0
629 639 0.0
629 646 0.0
629 2249 -0.000162059390613441
629 2250 -0.000164621823131189
629 2261 -0.000164377985077528
629 2262 -0.000164351625080718
629 2265 -0.000162061399017261
629 2266 -0.000164621105345924
629 2279 -0.00666666666666667
629 4231 -0.000435504189131306
629 4232 -0.000434633990251299
629 4241 -0.000161604530780638
629 4242 -0.00016235791789698
629 4253 -0.000435080679695977
629 4254 -0.000435058104025101
629 4261 -0.0166666666666667
629 4278 0.0
630 630 0.0333333333333333
630 4231 -0.0166666666666667
630 4278 -0.0166666666666667
631 631 0.0238543465439773
631 2251 -0.00666666666666667
631 4233 -0.0166666666666667
632 632 0.0419833961506189
632 634 0.0
632 635 0.0
632 2251 -0.000162064679580902
632 2252 -0.000164615944113866
632 2255 -0.00666666666666667
632 4233 -0.000435069416312691
632 4234 -0.000435069367813045
632 4235 -0.0166666666666667
632 4238 -0.0166666666666667
633 633 0.0133333333333333
633 2253 -0.00666666666666667
633 2256 -0.00666666666666667
634 632 0.0
634 634 0.0256582546102008
634 635 0.0
634 637 0.0
634 640 0.0
634 2253 -0.000435031107052827
634 2254 -0.000435067278703291
634 2255 0.0
634 2256 0.0
634 2259 -0.00666666666666667
634 4235 -0.000139670622926057
634 4236 -0.000141638804410661
634 4239 -0.0166666666666667
635 632 0.0
635 634 0.0
635 635 0.0256881329485436
635 640 0.0
635 2255 -0.000435031446660309
635 2256 -0.000435066939156654
635 2267 -0.00666666666666667
635 4237 -0.000141603983295218
635 4238 -0.000139664589011853
635 4247 -0.0166666666666667
636 590 0.0
636 629 0.0
636 636 0.0257149793095596
636 637 0.0
636 638 0.0
636 2257 -0.00666666666666667
636 2263 -0.000435027796634762
636 2264 -0.000435070588466729
636 4241 0.0
636 4242 0.0
636 4243 -0.00013946789461596
636 4244 -0.000140431934037818
636 4245 -0.0166666666666667
637 590 0.0
637 629 0.0
637 634 0.0
637 636 0.0
637 637 0.0320995089735354
637 639 0.0
637 640 0.0
637 2259 -0.000162063551455513
637 2260 -0.000164610567026665
637 2262 -0.00666666666666667
637 2263 -0.00666666666666667
637 4239 -0.000435069662231408
637 4240 -0.000435069121894098
637 4241 -0.0166666666666667
638 636 0.0
638 638 0.0333333333333333
638 4242 -0.0166666666666667
638 4243 -0.0166666666666667
639 590 0.0
639 629 0.0
639 637 0.0
639 639 0.0257775991854455
639 640 0.0
639 641 0.0
639 2265 -0.00666666666666667
639 2271 -0.000434813594858741
639 2272 -0.000435284514510405
639 4250 0.0
639 4251 -0.000139669192621243
639 4252 -0.000141543308308261
639 4253 -0.0166666666666667
640 590 0.0
640 634 0.0
640 635 0.0
640 637 0.0
640 639 0.0
640 640 0.0320970398516952
640 2267 -0.000162080612318651
640 2268 -0.00016469542408883
640 2270 -0.00666666666666667
640 2271 -0.00666666666666667
640 4247 -0.000435081000308743
640 4248 -0.000435057783388625
640 4249 -0.0166666666666667
640 4250 0.0
641 639 0.0
641 641 0.0333333333333333
641 4250 -0.0166666666666667
641 4251 -0.0166666666666667
642 642 0.0255649837703664
642 645 0.0
642 2273 -0.00666666666666667
642 2277 -0.000163017068024578
642 2278 -0.000164269850502768
642 4258 0.0
642 4259 -0.0166666666666667
642 4275 -0.000435171466639532
642 4276 -0.000434967284384675
643 643 0.0321778215370647
643 644 0.0
643 2276 -0.00666666666666667
643 2277 -0.00666666666666667
643 2293 -0.000162013975003999
643 2294 -0.000529428370961672
643 4255 -0.000415397501230702
643 4256 -0.000453392657545614
643 4257 -0.0166666666666667
643 4258 0.0
644 643 0.0
644 644 0.0258307931039124
644 646 0.0
644 2281 -0.00031738878540978
644 2282 -0.000506658477841222
644 2284 0.0
644 2293 -0.00666666666666667
644 4255 -0.0166666666666667
644 4263 -0.000482623514256753
644 4264 -0.000374919021333009
645 642 0.0
645 645 0.0333333333333333
645 4258 -0.0166666666666667
645 4275 -0.0166666666666667
646 629 0.0
646 644 0.0
646 646 0.0421918986255058
646 648 0.0
646 2279 -0.000435047888244457
646 2280 -0.000435050499142538
646 2283 -0.00666666666666667
646 2284 0.0
646 4261 -0.000139360440123895
646 4262 -0.000139848706255163
646 4263 -0.0166666666666667
646 4266 -0.0166666666666667
647 647 0.0133333333333333
647 2281 -0.00666666666666667
647 2284 -0.00666666666666667
648 646 0.0
648 648 0.0251983478038565
648 649 0.0
648 2283 -0.000163033771455106
648 2284 -0.000528851957736768
648 2285 -0.00666666666666667
648 4265 -0.000143208310342222
648 4266 -0.000199920559280412
648 4267 -0.0166666666666667
649 648 0.0
649 649 0.0319960854906845
649 650 0.0
649 2285 -0.000161988418302653
649 2286 -0.000164212922771787
649 2288 -0.00666666666666667
649 2289 -0.00666666666666667
649 4267 -0.000433603816949247
649 4268 -0.000436528005342376
649 4269 -0.0166666666666667
649 4271 0.0
650 649 0.0
650 650 0.0333333333333333
650 4269 0.0
650 4270 -0.0166666666666667
650 4271 -0.0166666666666667
651 651 0.0251635090375166
651 2289 -0.000192231196795264
651 2290 -0.000166616012173877
651 2291 -0.00666666666666667
651 4271 -0.000434603197477277
651 4272 -0.000435534875277425
651 4273 -0.0166666666666667
652 535 0.0
652 652 0.0312158150513081
652 653 0.0
652 655 0.0
652 686 0.0
652 690 0.0
652 691 0.0
652 698 0.0
652 701 0.0
652 702 0.0
652 2295 -0.00666666666666667
652 2371 -0.000164604656270789
652 2372 -0.000162062479874467
652 2381 -0.000162062393641909
652 2382 -0.000164604687177714
652 2393 -0.000164359758086323
652 2394 -0.000164358443027807
652 4279 -0.0166666666666667
652 4369 -0.000435067411943173
652 4370 -0.000435071372170113
652 4373 -0.000161601801933609
652 4374 -0.000162351306454973
652 4401 -0.000435071227206678
652 4402 -0.000435067556908351
653 652 0.0
653 653 0.042092968791643
653 655 0.0
653 656 0.0
653 2295 -0.000435042623232502
653 2296 -0.000435055763946669
653 2299 -0.00666666666666667
653 4279 -0.000139670792135546
653 4280 -0.000141640184749275
653 4281 -0.0166666666666667
653 4284 -0.0166666666666667
654 654 0.0133333333333333
654 2297 -0.00666666666666667
654 2300 -0.00666666666666667
655 535 0.0
655 621 0.0
655 652 0.0
655 653 0.0
655 655 0.0256871016294627
655 656 0.0
655 659 0.0
655 660 0.0
655 2297 -0.000435049192429826
655 2298 -0.000435049194965705
655 2299 0.0
655 2300 0.0
655 2307 -0.00666666666666667
655 4281 -0.000140348082594213
655 4282 -0.000140348090712459
655 4291 -0.0166666666666667
656 653 0.0
656 655 0.0
656 656 0.0252598187185143
656 657 0.0
656 2299 -0.000162062558982807
656 2300 -0.000164605380148779
656 2301 -0.00666666666666667
656 4283 -0.000435069485964877
656 4284 -0.000435069298160833
656 4285 -0.0166666666666667
657 656 0.0
657 657 0.0320929801235531
657 2301 -0.000435040485643667
657 2302 -0.000435057901371829
657 2304 -0.00666666666666667
657 2305 -0.00666666666666667
657 4285 -0.000139670745411773
657 4286 -0.000141639884975547
657 4287 -0.0166666666666667
658 658 0.0333333333333333
658 4288 -0.0166666666666667
658 4289 -0.0166666666666667
659 621 0.0
659 655 0.0
659 659 0.0320996579074416
659 660 0.0
659 2307 -0.000162062535498602
659 2308 -0.000164605265022378
659 2310 -0.00666666666666667
659 2311 -0.00666666666666667
659 4291 -0.000435069390354665
659 4292 -0.000435069393771073
659 4339 -0.0166666666666667
660 621 0.0
660 655 0.0
660 659 0.0
660 660 0.0295485029270329
660 667 0.0
660 668 0.0
660 670 0.0
660 677 0.0
660 2311 -0.000435040781993408
660 2312 -0.000435057605047514
660 2323 -0.000435050784089094
660 2324 -0.000435047603293761
660 2327 -0.000435040480241352
660 2328 -0.000435057906773672
660 2341 -0.00666666666666667
660 4293 -0.00013967468677361
660 4294 -0.000141584559729123
660 4303 -0.000139700198051381
660 4304 -0.000141287467734219
660 4315 -0.000139670743900726
660 4316 -0.000141639876179016
660 4323 -0.0166666666666667
660 4339 0.0
660 4340 0.0
661 661 0.0333333333333333
661 4293 -0.0166666666666667
661 4340 -0.0166666666666667
662 662 0.0238543465439773
662 2313 -0.00666666666666667
662 4295 -0.0166666666666667
663 663 0.0420929804437093
663 665 0.0
663 666 0.0
663 2313 -0.000435040480200655
663 2314 -0.000435057906814366
663 2317 -0.00666666666666667
663 4295 -0.000139670743898058
663 4296 -0.00014163987616294
663 4297 -0.0166666666666667
663 4300 -0.0166666666666667
664 664 0.0133333333333333
664 2315 -0.00666666666666667
664 2318 -0.00666666666666667
665 663 0.0
665 665 0.0257458287840864
665 666 0.0
665 668 0.0
665 671 0.0
665 2315 -0.000435049192316072
665 2316 -0.00043504919507946
665 2317 0.0
665 2318 0.0
665 2321 -0.00666666666666667
665 4297 -0.000140348087318789
665 4298 -0.000140348087395502
665 4301 -0.0166666666666667
666 663 0.0
666 665 0.0
666 666 0.0255775463585167
666 671 0.0
666 2317 -0.000162062559106629
666 2318 -0.000164605382367112
666 2329 -0.00666666666666667
666 4299 -0.000435069392951676
666 4300 -0.000435069391174062
666 4309 -0.0166666666666667
667 621 0.0
667 660 0.0
667 667 0.0257404832051559
667 668 0.0
667 669 0.0
667 2319 -0.00666666666666667
667 2325 -0.000435047603293765
667 2326 -0.000435050784089089
667 4303 0.0
667 4304 0.0
667 4305 -0.000140178145272992
667 4306 -0.000140415042956877
667 4307 -0.0166666666666667
668 621 0.0
668 660 0.0
668 665 0.0
668 667 0.0
668 668 0.0320997361635547
668 670 0.0
668 671 0.0
668 2321 -0.000162062001816589
668 2322 -0.000164602607009131
668 2324 -0.00666666666666667
668 2325 -0.00666666666666667
668 4301 -0.000435069391183394
668 4302 -0.000435069392942344
668 4303 -0.0166666666666667
669 667 0.0
669 669 0.0333333333333333
669 4304 -0.0166666666666667
669 4305 -0.0166666666666667
670 621 0.0
670 660 0.0
670 668 0.0
670 670 0.0256633780155203
670 671 0.0
670 672 0.0
670 2327 -0.00666666666666667
670 2333 -0.000162062559104682
670 2334 -0.00016460538259624
670 4312 0.0
670 4313 -0.000435069391241579
670 4314 -0.000435069392884159
670 4315 -0.0166666666666667
671 621 0.0
671 665 0.0
671 666 0.0
671 668 0.0
671 670 0.0
671 671 0.032208928393221
671 2329 -0.000435040480209678
671 2330 -0.000435057906805343
671 2332 -0.00666666666666667
671 2333 -0.00666666666666667
671 4309 -0.000139670744267196
671 4310 -0.00014163987829322
671 4311 -0.0166666666666667
671 4312 0.0
672 670 0.0
672 672 0.0333333333333333
672 4312 -0.0166666666666667
672 4313 -0.0166666666666667
673 673 0.0256614590292297
673 674 0.0
673 2335 -0.00666666666666667
673 2339 -0.000435040782183992
673 2340 -0.000435057604856945
673 4321 -0.0166666666666667
673 4337 -0.000139674680709099
673 4338 -0.000141584640574249
674 673 0.0
674 674 0.0319837098823798
674 675 0.0
674 676 0.0
674 2338 -0.00666666666666667
674 2339 -0.00666666666666667
674 2355 -0.000162062535484635
674 2356 -0.00016460526496674
674 4317 -0.000435069391188663
674 4318 -0.000435069392937075
674 4319 -0.0166666666666667
674 4337 0.0
675 674 0.0
675 675 0.0256582249674734
675 677 0.0
675 2343 -0.000435031767248445
675 2344 -0.00043506661862517
675 2346 0.0
675 2355 -0.00666666666666667
675 4317 -0.0166666666666667
675 4325 -0.000139670761454597
675 4326 -0.000141639617487516
676 674 0.0
676 676 0.0333333333333333
676 4319 0.0
676 4320 -0.0166666666666667
676 4337 -0.0166666666666667
677 660 0.0
677 675 0.0
677 677 0.0419834073410085
677 679 0.0
677 2341 -0.000162064603069655
677 2342 -0.000164615562666129
677 2345 -0.00666666666666667
677 2346 0.0
677 4323 -0.000435069391170067
677 4324 -0.000435069392955671
677 4325 -0.0166666666666667
677 4328 -0.0166666666666667
678 678 0.0133333333333333
678 2343 -0.00666666666666667
678 2346 -0.00666666666666667
679 677 0.0
679 679 0.025369107810061
679 680 0.0
679 2345 -0.000435031759841376
679 2346 -0.000435066626030806
679 2347 -0.00666666666666667
679 4327 -0.000141639617489162
679 4328 -0.000139670761454882
679 4329 -0.0166666666666667
680 679 0.0
680 680 0.0319837098823804
680 681 0.0
680 682 0.0
680 2347 -0.000162062535484633
680 2348 -0.000164605264966722
680 2350 -0.00666666666666667
680 2351 -0.00666666666666667
680 4329 -0.000435069391188131
680 4330 -0.000435069392937607
680 4331 -0.0166666666666667
680 4333 0.0
681 680 0.0
681 681 0.0333333333333333
681 4331 0.0
681 4332 -0.0166666666666667
681 4333 -0.0166666666666667
682 680 0.0
682 682 0.0253136149492908
682 2351 -0.000435040782184037
682 2352 -0.000435057604856901
682 2353 -0.00666666666666667
682 4333 -0.000139674680709101
682 4334 -0.000141584640574256
682 4335 -0.0166666666666667
683 683 0.031215736480519
683 684 0.0
683 686 0.0
683 717 0.0
683 721 0.0
683 722 0.0
683 729 0.0
683 730 0.0
683 732 0.0
683 733 0.0
683 2357 -0.00666666666666667
683 2433 -0.000164360410611333
683 2434 -0.000164359006864497
683 2443 -0.000162062558941643
683 2444 -0.000164605381794142
683 2455 -0.000164605381790941
683 2456 -0.000162062558950573
683 4341 -0.0166666666666667
683 4431 -0.000435069391089031
683 4432 -0.000435069393036708
683 4435 -0.000435069390245067
683 4436 -0.000435069393880671
683 4463 -0.000161601720324869
683 4464 -0.000162351552541144
684 683 0.0
684 684 0.042092973982617
684 686 0.0
684 687 0.0
684 2357 -0.000435040482273178
684 2358 -0.000435057904742023
684 2361 -0.00666666666666667
684 4341 -0.000139670774820815
684 4342 -0.000141640054670844
684 4343 -0.0166666666666667
684 4346 -0.0166666666666667
685 685 0.0133333333333333
685 2359 -0.00666666666666667
685 2362 -0.00666666666666667
686 535 0.0
686 652 0.0
686 683 0.0
686 684 0.0
686 686 0.0254915570191668
686 687 0.0
686 690 0.0
686 691 0.0
686 714 0.0
686 715 0.0
686 717 0.0
686 2359 -0.000162127387857517
686 2360 -0.000164583146079132
686 2361 0.0
686 2362 0.0
686 2369 -0.00666666666666667
686 4343 -0.000435069333337654
686 4344 -0.000435069450788073
686 4353 -0.0166666666666667
687 684 0.0
687 686 0.0
687 687 0.0249645635933331
687 2361 -0.000166319269560149
687 2362 -0.000166854266156419
687 2363 -0.00666666666666667
687 4345 -0.000140349304427809
687 4346 -0.000140349299344085
687 4347 -0.0166666666666667
688 688 0.0319795589129939
688 2363 -0.000162091523337548
688 2364 -0.000164750533637445
688 2366 -0.00666666666666667
688 2367 -0.00666666666666667
688 4347 -0.000435068660852071
688 4348 -0.000435070123271967
688 4349 -0.0166666666666667
689 689 0.0333333333333333
689 4350 -0.0166666666666667
689 4351 -0.0166666666666667
690 652 0.0
690 686 0.0
690 690 0.0322057823008502
690 691 0.0
690 2369 -0.000435042276336175
690 2370 -0.000435056110819545
690 2372 -0.00666666666666667
690 2373 -0.00666666666666667
690 4353 -0.000139686009466056
690 4354 -0.000141728009792283
690 4401 -0.0166666666666667
691 652 0.0
691 686 0.0
691 690 0.0
691 691 0.0286987467722891
691 698 0.0
691 699 0.0
691 701 0.0
691 702 0.0
691 708 0.0
691 2373 -0.000162006162226877
691 2374 -0.000164398193105456
691 2385 -0.000164089877345694
691 2386 -0.000164740360809532
691 2389 -0.000162006191893605
691 2390 -0.000164398182179902
691 2403 -0.00666666666666667
691 4355 -0.000435039396203469
691 4356 -0.00043509938506985
691 4365 -0.000161678337891334
691 4366 -0.00016242247031108
691 4377 -0.000435031309395257
691 4378 -0.00043510747013201
691 4385 -0.0166666666666667
691 4401 0.0
691 4402 0.0
692 692 0.0333333333333333
692 4355 -0.0166666666666667
692 4402 -0.0166666666666667
693 693 0.0238543465439773
693 2375 -0.00666666666666667
693 4357 -0.0166666666666667
694 694 0.0419834078568205
694 696 0.0
694 697 0.0
694 699 0.0
694 702 0.0
694 2375 -0.000162064599546256
694 2376 -0.000164615545095072
694 2379 -0.00666666666666667
694 2380 0.0
694 4357 -0.000435069389255754
694 4358 -0.000435069394869984
694 4359 -0.0166666666666667
694 4362 -0.0166666666666667
695 695 0.0133333333333333
695 2377 -0.00666666666666667
695 2380 -0.00666666666666667
696 694 0.0
696 696 0.0256580957796515
696 699 0.0
696 2377 -0.00043503181876303
696 2378 -0.000435066567119568
696 2380 0.0
696 2383 -0.00666666666666667
696 4359 -0.000139671380124086
696 4360 -0.000141643188367961
696 4363 -0.0166666666666667
697 694 0.0
697 697 0.0256868273049146
697 702 0.0
697 2379 -0.000435031752461292
697 2380 -0.0004350666334096
697 2391 -0.00666666666666667
697 4361 -0.000141639844172829
697 4362 -0.000139670800627344
697 4371 -0.0166666666666667
698 652 0.0
698 691 0.0
698 698 0.0256611955309136
698 699 0.0
698 700 0.0
698 702 0.0
698 2381 -0.00666666666666667
698 2387 -0.000435063218163868
698 2388 -0.000435035168246063
698 4366 0.0
698 4367 -0.000139675704206641
698 4368 -0.000141591382929153
698 4369 -0.0166666666666667
699 691 0.0
699 694 0.0
699 696 0.0
699 698 0.0
699 699 0.0320999233193186
699 702 0.0
699 2380 0.0
699 2383 -0.000162060731985976
699 2384 -0.000164598252833624
699 2386 -0.00666666666666667
699 2387 -0.00666666666666667
699 4363 -0.000435068235431639
699 4364 -0.000435070548689851
699 4365 -0.0166666666666667
699 4366 0.0
700 698 0.0
700 700 0.0333333333333333
700 4366 -0.0166666666666667
700 4367 -0.0166666666666667
701 652 0.0
701 691 0.0
701 701 0.0257716863610136
701 702 0.0
701 703 0.0
701 2389 -0.00666666666666667
701 2395 -0.000435042369262158
701 2396 -0.000435056017899961
701 4374 0.0
701 4375 -0.000139695639987959
701 4376 -0.000141701626146448
701 4377 -0.0166666666666667
702 652 0.0
702 691 0.0
702 694 0.0
702 697 0.0
702 698 0.0
702 699 0.0
702 701 0.0
702 702 0.0320996765524508
702 2380 0.0
702 2391 -0.000162062408593544
702 2392 -0.000164604734980652
702 2394 -0.00666666666666667
702 2395 -0.00666666666666667
702 4371 -0.0004350693176706
702 4372 -0.00043506946645512
702 4373 -0.0166666666666667
702 4374 0.0
703 701 0.0
703 703 0.0333333333333333
703 4374 -0.0166666666666667
703 4375 -0.0166666666666667
704 704 0.025501362664455
704 2397 -0.00666666666666667
704 2401 -0.000192798550395748
704 2402 -0.000167240534661016
704 4383 -0.0166666666666667
704 4399 -0.000434490077563752
704 4400 -0.000435647599072525
705 705 0.0319967451293014
705 706 0.0
705 707 0.0
705 2400 -0.00666666666666667
705 2401 -0.00666666666666667
705 2417 -0.000161978982117799
705 2418 -0.000164191968508161
705 4379 -0.000435268203178918
705 4380 -0.000434870455402745
705 4381 -0.0166666666666667
705 4399 0.0
706 705 0.0
706 706 0.0257463974004815
706 708 0.0
706 2405 -0.000413213785007988
706 2406 -0.000454683425554934
706 2408 0.0
706 2417 -0.00666666666666667
706 4379 -0.0166666666666667
706 4387 -0.000139754726222276
706 4388 -0.000140206540519597
707 705 0.0
707 707 0.0333333333333333
707 4381 0.0
707 4382 -0.0166666666666667
707 4399 -0.0166666666666667
708 691 0.0
708 706 0.0
708 708 0.0421600707339402
708 710 0.0
708 2403 -0.000435853333045042
708 2404 -0.000434241817042411
708 2407 -0.00666666666666667
708 2408 0.0
708 4385 -0.000141165531303231
708 4386 -0.000544660594244081
708 4387 -0.0166666666666667
708 4390 -0.0166666666666667
709 709 0.0133333333333333
709 2405 -0.00666666666666667
709 2408 -0.00666666666666667
710 708 0.0
710 710 0.0250247683829412
710 711 0.0
710 2407 -0.000163098438357499
710 2408 -0.000530165770547246
710 2409 -0.00666666666666667
710 4389 -0.000165095492820345
710 4390 -0.00015045079906942
710 4391 -0.0166666666666667
711 710 0.0
711 711 0.032178402980707
711 2409 -0.000162004212070115
711 2410 -0.000529438965863179
711 2412 -0.00666666666666667
711 2413 -0.00666666666666667
711 4391 -0.00042116944087345
711 4392 -0.000448291280314557
711 4393 -0.0166666666666667
711 4394 0.0
712 712 0.0333333333333333
712 713 0.0
712 4394 -0.0166666666666667
712 4395 -0.0166666666666667
713 712 0.0
713 713 0.025217087702088
713 2413 -0.000163010868918803
713 2414 -0.000164270868404786
713 2415 -0.00666666666666667
713 4394 0.0
713 4395 -0.000435171428461129
713 4396 -0.000434967322587668
713 4397 -0.0166666666666667
714 497 0.0
714 535 0.0
714 536 0.0
714 686 0.0
714 714 0.0312157364068764
714 715 0.0
714 745 0.0
714 748 0.0
714 752 0.0
714 753 0.0
714 760 0.0
714 761 0.0
714 763 0.0
714 764 0.0
714 776 0.0
714 2419 -0.00666666666666667
714 2495 -0.000164360411311726
714 2496 -0.000164359007643746
714 2505 -0.000162062559106824
714 2506 -0.000164605382618113
714 2517 -0.000164605382615035
714 2518 -0.000162062559115411
714 4403 -0.0166666666666667
714 4493 -0.000435069391188775
714 4494 -0.000435069392936964
714 4497 -0.00043506939031468
714 4498 -0.000435069393811058
714 4525 -0.000161601720097545
714 4526 -0.000162351552330415
715 686 0.0
715 714 0.0
715 715 0.0420929804454728
715 717 0.0
715 718 0.0
715 2419 -0.00043504048019818
715 2420 -0.00043505790681684
715 2423 -0.00666666666666667
715 4403 -0.000139670743889625
715 4404 -0.000141639876114236
715 4405 -0.0166666666666667
715 4408 -0.0166666666666667
716 716 0.0133333333333333
716 2421 -0.00666666666666667
716 2424 -0.00666666666666667
717 683 0.0
717 686 0.0
717 715 0.0
717 717 0.0256871018618805
717 718 0.0
717 721 0.0
717 722 0.0
717 2421 -0.000435049192309293
717 2422 -0.000435049195086238
717 2423 0.0
717 2424 0.0
717 2431 -0.00666666666666667
717 4405 -0.000140348087313354
717 4406 -0.000140348087388715
717 4415 -0.0166666666666667
718 715 0.0
718 717 0.0
718 718 0.0252598186487732
718 719 0.0
718 2423 -0.000162062559109027
718 2424 -0.000164605382377889
718 2425 -0.00666666666666667
718 4407 -0.000435069392936103
718 4408 -0.000435069391189635
718 4409 -0.0166666666666667
719 718 0.0
719 719 0.0320929801562969
719 2425 -0.000435040480192435
719 2426 -0.000435057906822585
719 2428 -0.00666666666666667
719 2429 -0.00666666666666667
719 4409 -0.000139670745273938
719 4410 -0.000141639884104326
719 4411 -0.0166666666666667
720 720 0.0333333333333333
720 4412 -0.0166666666666667
720 4413 -0.0166666666666667
721 683 0.0
721 717 0.0
721 721 0.0320996579148839
721 722 0.0
721 2431 -0.000162062535444675
721 2432 -0.000164605264767691
721 2434 -0.00666666666666667
721 2435 -0.00666666666666667
721 4415 -0.00043506939118709
721 4416 -0.000435069392938648
721 4463 -0.0166666666666667
721 4464 0.0
722 683 0.0
722 717 0.0
722 721 0.0
722 722 0.0295485029252238
722 729 0.0
722 730 0.0
722 732 0.0
722 733 0.0
722 739 0.0
722 2435 -0.000435040782694776
722 2436 -0.000435057604346205
722 2447 -0.000435050784143863
722 2448 -0.000435047603238991
722 2451 -0.00043504048020477
722 2452 -0.00043505790681025
722 2465 -0.00666666666666667
722 4417 -0.000139674686768427
722 4418 -0.000141584559767933
722 4427 -0.000139700198049886
722 4428 -0.000141287467724896
722 4439 -0.000139670743899173
722 4440 -0.000141639876169436
722 4447 -0.0166666666666667
722 4464 0.0
723 723 0.0333333333333333
723 4417 -0.0166666666666667
723 4464 -0.0166666666666667
724 724 0.0238543465439773
724 2437 -0.00666666666666667
724 4419 -0.0166666666666667
725 725 0.0420929804454604
725 727 0.0
725 728 0.0
725 2437 -0.000435040480198194
725 2438 -0.000435057906816826
725 2441 -0.00666666666666667
725 2442 0.0
725 4419 -0.000139670743889684
725 4420 -0.000141639876114578
725 4421 -0.0166666666666667
725 4424 -0.0166666666666667
726 726 0.0133333333333333
726 2439 -0.00666666666666667
726 2442 -0.00666666666666667
727 725 0.0
727 727 0.0257458287849482
727 728 0.0
727 730 0.0
727 733 0.0
727 2439 -0.00043504919230931
727 2440 -0.000435049195086221
727 2442 0.0
727 2445 -0.00666666666666667
727 4421 -0.000140348087304587
727 4422 -0.000140348087379959
727 4425 -0.0166666666666667
728 725 0.0
728 727 0.0
728 728 0.0255775463582476
728 733 0.0
728 2441 -0.000162062559108391
728 2442 -0.000164605382374721
728 2453 -0.00666666666666667
728 4423 -0.000435069392936222
728 4424 -0.000435069391189517
728 4433 -0.0166666666666667
729 683 0.0
729 722 0.0
729 729 0.0257404831771073
729 730 0.0
729 731 0.0
729 2443 -0.00666666666666667
729 2449 -0.000435047603238989
729 2450 -0.000435050784143865
729 4427 0.0
729 4428 0.0
729 4429 -0.000140178145690197
729 4430 -0.000140415043482607
729 4431 -0.0166666666666667
730 683 0.0
730 722 0.0
730 727 0.0
730 729 0.0
730 730 0.03209973616287
730 733 0.0
730 2445 -0.000162062001821221
730 2446 -0.000164602607032292
730 2448 -0.00666666666666667
730 2449 -0.00666666666666667
730 4425 -0.000435069391192432
730 4426 -0.000435069392933306
730 4427 -0.0166666666666667
731 729 0.0
731 731 0.0333333333333333
731 4428 -0.0166666666666667
731 4429 -0.0166666666666667
732 683 0.0
732 722 0.0
732 732 0.0256633780151234
732 733 0.0
732 734 0.0
732 2451 -0.00666666666666667
732 2457 -0.00016206255911558
732 2458 -0.000164605382612299
732 4436 0.0
732 4437 -0.000435069390179441
732 4438 -0.000435069393946297
732 4439 -0.0166666666666667
733 683 0.0
733 722 0.0
733 727 0.0
733 728 0.0
733 730 0.0
733 732 0.0
733 733 0.0322089281582299
733 2453 -0.000435040480200664
733 2454 -0.000435057906814357
733 2456 -0.00666666666666667
733 2457 -0.00666666666666667
733 4433 -0.000139670745392212
733 4434 -0.00014163988478711
733 4435 -0.0166666666666667
733 4436 0.0
734 732 0.0
734 734 0.0333333333333333
734 4436 -0.0166666666666667
734 4437 -0.0166666666666667
735 735 0.0256614590292298
735 736 0.0
735 2459 -0.00666666666666667
735 2463 -0.000435040782183968
735 2464 -0.00043505760485697
735 4445 -0.0166666666666667
735 4461 -0.000139674680709099
735 4462 -0.000141584640574244
736 735 0.0
736 736 0.0319837098823795
736 737 0.0
736 738 0.0
736 2462 -0.00666666666666667
736 2463 -0.00666666666666667
736 2479 -0.000162062535484636
736 2480 -0.00016460526496675
736 4441 -0.000435069391188929
736 4442 -0.00043506939293681
736 4443 -0.0166666666666667
736 4461 0.0
737 736 0.0
737 737 0.0256582249675055
737 739 0.0
737 2467 -0.000435031767249091
737 2468 -0.000435066618624524
737 2470 0.0
737 2479 -0.00666666666666667
737 4441 -0.0166666666666667
737 4449 -0.000139670761454456
737 4450 -0.00014163961748665
738 736 0.0
738 738 0.0333333333333333
738 4443 0.0
738 4444 -0.0166666666666667
738 4461 -0.0166666666666667
739 722 0.0
739 737 0.0
739 739 0.0419834073409666
739 741 0.0
739 2465 -0.000162064603069939
739 2466 -0.00016461556266755
739 2469 -0.00666666666666667
739 2470 0.0
739 4447 -0.000435069391171351
739 4448 -0.000435069392954388
739 4449 -0.0166666666666667
739 4452 -0.0166666666666667
740 740 0.0133333333333333
740 2467 -0.00666666666666667
740 2470 -0.00666666666666667
741 739 0.0
741 741 0.0253691078101524
741 742 0.0
741 2469 -0.000435031759837511
741 2470 -0.00043506662603467
741 2471 -0.00666666666666667
741 4451 -0.000141639617486658
741 4452 -0.000139670761454457
741 4453 -0.0166666666666667
742 741 0.0
742 742 0.0319837098823795
742 743 0.0
742 744 0.0
742 2471 -0.000162062535484636
742 2472 -0.00016460526496675
742 2474 -0.00666666666666667
742 2475 -0.00666666666666667
742 4453 -0.000435069391188926
742 4454 -0.000435069392936812
742 4455 -0.0166666666666667
742 4457 0.0
743 742 0.0
743 743 0.0333333333333333
743 4455 0.0
743 4456 -0.0166666666666667
743 4457 -0.0166666666666667
744 742 0.0
744 744 0.0253136149492912
744 2475 -0.000435040782183968
744 2476 -0.00043505760485697
744 2477 -0.00666666666666667
744 4457 -0.000139674680709099
744 4458 -0.000141584640574244
744 4459 -0.0166666666666667
745 714 0.0
745 745 0.0320885629537309
745 746 0.0
745 748 0.0
745 753 0.0
745 776 0.0
745 783 0.0
745 784 0.0
745 791 0.0
745 792 0.0
745 795 0.0
745 2481 -0.00666666666666667
745 2557 -0.000435057895657227
745 2558 -0.000435040491358768
745 2567 -0.000435040480198168
745 2568 -0.000435057906816852
745 2579 -0.000435050784145494
745 2580 -0.00043504760323736
745 4465 -0.0166666666666667
745 4552 0.0
745 4555 -0.000139670743896895
745 4556 -0.000141639876156198
745 4559 -0.000139700198047441
745 4560 -0.000141287467714374
745 4587 -0.000139670783800488
745 4588 -0.000141639277731675
746 745 0.0
746 746 0.0419834073409644
746 748 0.0
746 749 0.0
746 2481 -0.000162064603069937
746 2482 -0.000164615562667618
746 2485 -0.00666666666666667
746 4465 -0.000435069391175761
746 4466 -0.000435069392949977
746 4467 -0.0166666666666667
746 4470 -0.0166666666666667
747 747 0.0133333333333333
747 2483 -0.00666666666666667
747 2486 -0.00666666666666667
748 714 0.0
748 745 0.0
748 746 0.0
748 748 0.0255994980449185
748 749 0.0
748 752 0.0
748 753 0.0
748 2483 -0.000435031767248966
748 2484 -0.000435066618624648
748 2485 0.0
748 2486 0.0
748 2493 -0.00666666666666667
748 4467 -0.000139670761454456
748 4468 -0.000141639617486651
748 4477 -0.0166666666666667
749 746 0.0
749 748 0.0
749 749 0.0253691078105353
749 750 0.0
749 2485 -0.000435031759837442
749 2486 -0.000435066626034739
749 2487 -0.00666666666666667
749 4469 -0.00014163961747608
749 4470 -0.000139670761452624
749 4471 -0.0166666666666667
750 749 0.0
750 750 0.0319837881362097
750 2487 -0.000162062001821317
750 2488 -0.000164602607032772
750 2490 -0.00666666666666667
750 2491 -0.00666666666666667
750 4471 -0.000435069391192449
750 4472 -0.000435069392933289
750 4473 -0.0166666666666667
751 751 0.0333333333333333
751 4474 -0.0166666666666667
751 4475 -0.0166666666666667
752 714 0.0
752 748 0.0
752 752 0.0320996579140455
752 753 0.0
752 2493 -0.000162062535450388
752 2494 -0.000164605264796175
752 2496 -0.00666666666666667
752 2497 -0.00666666666666667
752 4477 -0.000435069391188929
752 4478 -0.00043506939293681
752 4525 -0.0166666666666667
753 714 0.0
753 745 0.0
753 748 0.0
753 752 0.0
753 753 0.0295485029266232
753 760 0.0
753 761 0.0
753 763 0.0
753 770 0.0
753 2497 -0.000435040782621793
753 2498 -0.000435057604419182
753 2509 -0.000435050784145526
753 2510 -0.000435047603237328
753 2513 -0.000435040480198148
753 2514 -0.000435057906816872
753 2527 -0.00666666666666667
753 4479 -0.000139674686766605
753 4480 -0.000141584559754341
753 4489 -0.000139700198047769
753 4490 -0.000141287467715878
753 4501 -0.000139670743897208
753 4502 -0.000141639876158004
753 4509 -0.0166666666666667
753 4525 0.0
753 4526 0.0
754 754 0.0333333333333333
754 4479 -0.0166666666666667
754 4526 -0.0166666666666667
755 755 0.0238543465439773
755 2499 -0.00666666666666667
755 4481 -0.0166666666666667
756 756 0.0420929804454732
756 758 0.0
756 759 0.0
756 2499 -0.00043504048019818
756 2500 -0.00043505790681684
756 2503 -0.00666666666666667
756 4481 -0.000139670743889623
756 4482 -0.000141639876114223
756 4483 -0.0166666666666667
756 4486 -0.0166666666666667
757 757 0.0133333333333333
757 2501 -0.00666666666666667
757 2504 -0.00666666666666667
758 756 0.0
758 758 0.0257458287849504
758 759 0.0
758 761 0.0
758 764 0.0
758 2501 -0.000435049192309252
758 2502 -0.000435049195086279
758 2503 0.0
758 2504 0.0
758 2507 -0.00666666666666667
758 4483 -0.000140348087304558
758 4484 -0.000140348087379919
758 4487 -0.0166666666666667
759 756 0.0
759 758 0.0
759 759 0.0255775463581539
759 764 0.0
759 2503 -0.00016206255910903
759 2504 -0.000164605382377897
759 2515 -0.00666666666666667
759 4485 -0.000435069392936098
759 4486 -0.000435069391189641
759 4495 -0.0166666666666667
760 714 0.0
760 753 0.0
760 760 0.0257404831864265
760 761 0.0
760 762 0.0
760 2505 -0.00666666666666667
760 2511 -0.000435047603237328
760 2512 -0.000435050784145526
760 4490 0.0
760 4491 -0.000140178145551706
760 4492 -0.000140415043308048
760 4493 -0.0166666666666667
761 714 0.0
761 753 0.0
761 758 0.0
761 760 0.0
761 761 0.0320997361628521
761 763 0.0
761 764 0.0
761 2507 -0.000162062001821343
761 2508 -0.000164602607032902
761 2510 -0.00666666666666667
761 2511 -0.00666666666666667
761 4487 -0.000435069391192461
761 4488 -0.000435069392933277
761 4489 -0.0166666666666667
761 4490 0.0
762 760 0.0
762 762 0.0333333333333333
762 4490 -0.0166666666666667
762 4491 -0.0166666666666667
763 714 0.0
763 753 0.0
763 761 0.0
763 763 0.025663378015035
763 764 0.0
763 2513 -0.00666666666666667
763 2519 -0.000162062559115413
763 2520 -0.000164605382615047
763 4497 0.0
763 4498 0.0
763 4499 -0.00043506939031468
763 4500 -0.000435069393811058
763 4501 -0.0166666666666667
764 714 0.0
764 758 0.0
764 759 0.0
764 761 0.0
764 763 0.0
764 764 0.0322089281809833
764 2515 -0.000435040480192395
764 2516 -0.000435057906822625
764 2518 -0.00666666666666667
764 2519 -0.00666666666666667
764 4495 -0.000139670745283319
764 4496 -0.000141639884158475
764 4497 -0.0166666666666667
765 765 0.0333333333333333
765 4498 -0.0166666666666667
765 4499 -0.0166666666666667
766 766 0.0255642320220383
766 2521 -0.00666666666666667
766 2525 -0.00016435896078404
766 2526 -0.000164360413019344
766 4507 -0.0166666666666667
766 4523 -0.000435064994898319
766 4524 -0.000435073789166011
767 767 0.031983706548549
767 769 0.0
767 2524 -0.00666666666666667
767 2525 -0.00666666666666667
767 2541 -0.000162062558230456
767 2542 -0.000164605378253319
767 4503 -0.00043506939118878
767 4504 -0.000435069392936958
767 4505 -0.0166666666666667
767 4523 0.0
768 768 0.0256582249674895
768 770 0.0
768 2529 -0.000435031767249002
768 2530 -0.000435066618624613
768 2532 0.0
768 2541 -0.00666666666666667
768 4503 -0.0166666666666667
768 4511 -0.000139670761454533
768 4512 -0.000141639617487094
769 767 0.0
769 769 0.0333333333333333
769 4505 0.0
769 4506 -0.0166666666666667
769 4523 -0.0166666666666667
770 753 0.0
770 768 0.0
770 770 0.0419834073409641
770 772 0.0
770 2527 -0.000162064603069942
770 2528 -0.000164615562667629
770 2531 -0.00666666666666667
770 2532 0.0
770 4509 -0.000435069391175081
770 4510 -0.000435069392950657
770 4511 -0.0166666666666667
770 4514 -0.0166666666666667
771 771 0.0133333333333333
771 2529 -0.00666666666666667
771 2532 -0.00666666666666667
772 770 0.0
772 772 0.0253691078101367
772 773 0.0
772 2531 -0.000435031759837399
772 2532 -0.000435066626034782
772 2533 -0.00666666666666667
772 4513 -0.000141639617487094
772 4514 -0.000139670761454533
772 4515 -0.0166666666666667
773 772 0.0
773 773 0.031983706548549
773 774 0.0
773 2533 -0.000162062558230456
773 2534 -0.000164605378253319
773 2536 -0.00666666666666667
773 2537 -0.00666666666666667
773 4515 -0.00043506939118878
773 4516 -0.000435069392936958
773 4517 -0.0166666666666667
773 4519 0.0
774 773 0.0
774 774 0.0333333333333333
774 4517 0.0
774 4518 -0.0166666666666667
774 4519 -0.0166666666666667
775 775 0.0252163879420997
775 2537 -0.00016435896078404
775 2538 -0.000164360413019344
775 2539 -0.00666666666666667
775 4519 -0.000435064994898319
775 4520 -0.000435073789166011
775 4521 -0.0166666666666667
776 497 0.0
776 536 0.0
776 714 0.0
776 745 0.0
776 776 0.0320887366348248
776 777 0.0
776 783 0.0
776 784 0.0
776 807 0.0
776 814 0.0
776 815 0.0
776 822 0.0
776 823 0.0
776 826 0.0
776 869 0.0
776 2543 -0.00666666666666667
776 2619 -0.000435064268078357
776 2620 -0.000435034118178185
776 2629 -0.000435040451653886
776 2630 -0.000435057935358637
776 2641 -0.00043505792048611
776 2642 -0.000435040466527716
776 4527 -0.0166666666666667
776 4614 0.0
776 4617 -0.00013967048106757
776 4618 -0.000141638358730469
776 4621 -0.000139670520926418
776 4622 -0.000141637761129918
776 4649 -0.00013969993087286
776 4650 -0.000141286093437002
777 776 0.0
777 777 0.0419834068919483
777 779 0.0
777 780 0.0
777 783 0.0
777 2543 -0.000162064604275187
777 2544 -0.000164615577356503
777 2547 -0.00666666666666667
777 2548 0.0
777 4527 -0.000435069886305821
777 4528 -0.000435068897819141
777 4529 -0.0166666666666667
777 4532 -0.0166666666666667
778 778 0.0133333333333333
778 2545 -0.00666666666666667
778 2548 -0.00666666666666667
779 777 0.0
779 779 0.0255994981604824
779 783 0.0
779 2545 -0.000435031753444996
779 2546 -0.000435066632426207
779 2548 0.0
779 2555 -0.00666666666666667
779 4529 -0.000139670761026265
779 4530 -0.000141639614515128
779 4539 -0.0166666666666667
780 777 0.0
780 780 0.0253691080400011
780 781 0.0
780 2547 -0.00043503173693531
780 2548 -0.000435066648932866
780 2549 -0.00666666666666667
780 4531 -0.000141639611356818
780 4532 -0.000139670760479101
780 4533 -0.0166666666666667
781 780 0.0
781 781 0.0319837098814821
781 2549 -0.000162062535483416
781 2550 -0.000164605264995012
781 2552 -0.00666666666666667
781 2553 -0.00666666666666667
781 4533 -0.000435069393124601
781 4534 -0.000435069391001138
781 4535 -0.0166666666666667
782 782 0.0333333333333333
782 4536 -0.0166666666666667
782 4537 -0.0166666666666667
783 745 0.0
783 776 0.0
783 777 0.0
783 779 0.0
783 783 0.0320996545746903
783 784 0.0
783 2548 0.0
783 2555 -0.00016206255823062
783 2556 -0.000164605378269445
783 2558 -0.00666666666666667
783 2559 -0.00666666666666667
783 4539 -0.000435069392055964
783 4540 -0.000435069392069774
783 4587 -0.0166666666666667
783 4588 0.0
784 745 0.0
784 776 0.0
784 783 0.0
784 784 0.0292425277050151
784 792 0.0
784 794 0.0
784 795 0.0
784 801 0.0
784 2559 -0.000164358960778227
784 2560 -0.000164360413020583
784 2571 -0.000164605382615351
784 2572 -0.000162062559115474
784 2575 -0.000162062559106888
784 2576 -0.000164605382618428
784 2589 -0.00666666666666667
784 4541 -0.000435064994897327
784 4542 -0.000435073789167003
784 4551 -0.000435069390314711
784 4552 -0.000435069393811027
784 4560 0.0
784 4563 -0.000435069391188743
784 4564 -0.000435069392936996
784 4571 -0.0166666666666667
784 4588 0.0
785 785 0.0333333333333333
785 4541 -0.0166666666666667
785 4588 -0.0166666666666667
786 786 0.0238543465439773
786 2561 -0.00666666666666667
786 4543 -0.0166666666666667
787 787 0.0420929804212084
787 789 0.0
787 790 0.0
787 2561 -0.000435040480197698
787 2562 -0.000435057906817322
787 2565 -0.00666666666666667
787 4543 -0.000139670744005781
787 4544 -0.000141639876784672
787 4545 -0.0166666666666667
787 4548 -0.0166666666666667
788 788 0.0133333333333333
788 2563 -0.00666666666666667
788 2566 -0.00666666666666667
789 787 0.0
789 789 0.0255502626954251
789 790 0.0
789 792 0.0
789 795 0.0
789 2563 -0.000162127546311874
789 2564 -0.000164583726855932
789 2565 0.0
789 2566 0.0
789 2569 -0.00666666666666667
789 4545 -0.000435069390971014
789 4546 -0.000435069393154724
789 4549 -0.0166666666666667
790 787 0.0
790 789 0.0
790 790 0.0252823579642373
790 795 0.0
790 2565 -0.000166319285307283
790 2566 -0.000166854277196956
790 2577 -0.00666666666666667
790 4547 -0.000140348087384464
790 4548 -0.000140348087290235
790 4557 -0.0166666666666667
791 745 0.0
791 791 0.0255489358069172
791 792 0.0
791 793 0.0
791 2567 -0.00666666666666667
791 2573 -0.000162062559115409
791 2574 -0.000164605382615029
791 4552 0.0
791 4553 -0.000435069390314652
791 4554 -0.000435069393811086
791 4555 -0.0166666666666667
792 745 0.0
792 784 0.0
792 789 0.0
792 791 0.0
792 792 0.0322089281809831
792 795 0.0
792 2569 -0.000435040480192397
792 2570 -0.000435057906822622
792 2572 -0.00666666666666667
792 2573 -0.00666666666666667
792 4549 -0.00013967074528332
792 4550 -0.000141639884158481
792 4551 -0.0166666666666667
792 4552 0.0
793 791 0.0
793 793 0.0333333333333333
793 4552 -0.0166666666666667
793 4553 -0.0166666666666667
794 784 0.0
794 794 0.0258549253945415
794 795 0.0
794 796 0.0
794 2575 -0.00666666666666667
794 2581 -0.00043504760323736
794 2582 -0.000435050784145494
794 4560 0.0
794 4561 -0.000140178145551758
794 4562 -0.000140415043308111
794 4563 -0.0166666666666667
795 745 0.0
795 784 0.0
795 789 0.0
795 790 0.0
795 792 0.0
795 794 0.0
795 795 0.0320997361628526
795 2577 -0.000162062001821339
795 2578 -0.000164602607032882
795 2580 -0.00666666666666667
795 2581 -0.00666666666666667
795 4557 -0.000435069391192449
795 4558 -0.000435069392933289
795 4559 -0.0166666666666667
795 4560 0.0
796 794 0.0
796 796 0.0333333333333333
796 4560 -0.0166666666666667
796 4561 -0.0166666666666667
797 797 0.0255489358069375
797 798 0.0
797 800 0.0
797 2583 -0.00666666666666667
797 2587 -0.000162062559115238
797 2588 -0.000164605382614329
797 4567 0.0
797 4568 0.0
797 4569 -0.0166666666666667
797 4585 -0.000435069390319028
797 4586 -0.000435069393806711
798 797 0.0
798 798 0.032092980155317
798 799 0.0
798 2586 -0.00666666666666667
798 2587 -0.00666666666666667
798 2603 -0.000435040480192416
798 2604 -0.000435057906822603
798 4565 -0.000139670745278628
798 4566 -0.000141639884131401
798 4567 -0.0166666666666667
799 798 0.0
799 799 0.0255502626954253
799 801 0.0
799 2591 -0.000162127546311873
799 2592 -0.000164583726855925
799 2594 0.0
799 2603 -0.00666666666666667
799 4565 -0.0166666666666667
799 4573 -0.000435069390971
799 4574 -0.000435069393154738
800 797 0.0
800 800 0.0333333333333333
800 4568 -0.0166666666666667
800 4585 -0.0166666666666667
801 784 0.0
801 799 0.0
801 801 0.0420929804212068
801 803 0.0
801 2589 -0.000435040480197264
801 2590 -0.000435057906817756
801 2593 -0.00666666666666667
801 2594 0.0
801 4571 -0.00013967074400579
801 4572 -0.00014163987678472
801 4573 -0.0166666666666667
801 4576 -0.0166666666666667
802 802 0.0133333333333333
802 2591 -0.00666666666666667
802 2594 -0.00666666666666667
803 801 0.0
803 803 0.024964630254857
803 804 0.0
803 2593 -0.000166319285307284
803 2594 -0.000166854277196956
803 2595 -0.00666666666666667
803 4575 -0.000140348087384448
803 4576 -0.000140348087290218
803 4577 -0.0166666666666667
804 803 0.0
804 804 0.0319837881362063
804 805 0.0
804 806 0.0
804 2595 -0.00016206200182134
804 2596 -0.000164602607032885
804 2598 -0.00666666666666667
804 2599 -0.00666666666666667
804 4577 -0.000435069391192458
804 4578 -0.00043506939293328
804 4579 -0.0166666666666667
805 804 0.0
805 805 0.0333333333333333
805 806 0.0
805 4579 0.0
805 4580 -0.0166666666666667
805 4581 -0.0166666666666667
806 804 0.0
806 805 0.0
806 806 0.0253926391078277
806 2599 -0.00043504760323737
806 2600 -0.000435050784145484
806 2601 -0.00666666666666667
806 4581 -0.000140178145569362
806 4582 -0.000140415043288559
806 4583 -0.0166666666666667
807 776 0.0
807 807 0.0323033163368178
807 808 0.0
807 814 0.0
807 815 0.0
807 838 0.0
807 845 0.0
807 846 0.0
807 852 0.0
807 853 0.0
807 854 0.0
807 857 0.0
807 869 0.0
807 2605 -0.00666666666666667
807 2681 -0.000435097665935212
807 2682 -0.000435000709682982
807 2691 -0.000435007341079486
807 2692 -0.000435091037539935
807 2703 -0.000435072205240187
807 2704 -0.000435026179501546
807 4589 -0.0166666666666667
807 4676 0.0
807 4679 -0.000139419879842098
807 4680 -0.000140230214929006
807 4683 -0.000139434374869739
807 4684 -0.000140068522154646
807 4711 -0.000139419950330182
807 4712 -0.000140190964959547
808 807 0.0
808 808 0.0419134531554943
808 810 0.0
808 811 0.0
808 814 0.0
808 2605 -0.000162816160491764
808 2606 -0.000168362009615544
808 2609 -0.00666666666666667
808 2610 0.0
808 4589 -0.000435630521898627
808 4590 -0.000434507214005838
808 4591 -0.0166666666666667
808 4594 -0.0166666666666667
809 809 0.0133333333333333
809 2607 -0.00666666666666667
809 2610 -0.00666666666666667
810 808 0.0
810 810 0.0256392674343047
810 814 0.0
810 2607 -0.000434980287163911
810 2608 -0.000435118076441908
810 2610 0.0
810 2617 -0.00666666666666667
810 4591 -0.00013953667004799
810 4592 -0.000140761520198304
810 4601 -0.0166666666666667
811 808 0.0
811 811 0.0254101279172756
811 812 0.0
811 2609 -0.000391663109199983
811 2610 -0.000470345934721972
811 2611 -0.00666666666666667
811 4593 -0.00055973913719133
811 4594 -0.000144437867213283
811 4595 -0.0166666666666667
812 811 0.0
812 812 0.0321268372004409
812 2611 -0.00031799485327887
812 2612 -0.000506466269753455
812 2614 -0.00666666666666667
812 2615 -0.00666666666666667
812 4595 -0.000141554480273249
812 4596 -0.00054326925610384
812 4597 -0.0166666666666667
813 813 0.0333333333333333
813 4598 -0.0166666666666667
813 4599 -0.0166666666666667
814 776 0.0
814 807 0.0
814 808 0.0
814 810 0.0
814 814 0.032099560224959
814 815 0.0
814 2610 0.0
814 2617 -0.000162062221237022
814 2618 -0.000164608243083756
814 2620 -0.00666666666666667
814 2621 -0.00666666666666667
814 4601 -0.000435330234208519
814 4602 -0.000434808332877939
814 4649 -0.0166666666666667
814 4650 0.0
815 776 0.0
815 807 0.0
815 814 0.0
815 815 0.0296377168966711
815 823 0.0
815 825 0.0
815 826 0.0
815 832 0.0
815 2621 -0.000435034118314004
815 2622 -0.000435064267942558
815 2633 -0.000435057871981406
815 2634 -0.000435040515036651
815 2637 -0.000435040521728764
815 2638 -0.000435057865289875
815 2651 -0.00666666666666667
815 4603 -0.000140176366249098
815 4604 -0.000140412798776869
815 4613 -0.000139670105391945
815 4614 -0.000141635362111392
815 4622 0.0
815 4625 -0.000139670065452414
815 4626 -0.000141635960674409
815 4633 -0.0166666666666667
815 4650 0.0
816 816 0.0333333333333333
816 4603 -0.0166666666666667
816 4650 -0.0166666666666667
817 817 0.0238543465439773
817 2623 -0.00666666666666667
817 4605 -0.0166666666666667
818 818 0.0419834073423189
818 820 0.0
818 821 0.0
818 2623 -0.000162064603060627
818 2624 -0.000164615562621545
818 2627 -0.00666666666666667
818 4605 -0.000435069391186562
818 4606 -0.000435069392939176
818 4607 -0.0166666666666667
818 4610 -0.0166666666666667
819 819 0.0133333333333333
819 2625 -0.00666666666666667
819 2628 -0.00666666666666667
820 818 0.0
820 820 0.0256582245002681
820 821 0.0
820 823 0.0
820 826 0.0
820 2625 -0.000435031767219332
820 2626 -0.000435066618654278
820 2627 0.0
820 2628 0.0
820 2631 -0.00666666666666667
820 4607 -0.000139670763690923
820 4608 -0.000141639630395104
820 4611 -0.0166666666666667
821 818 0.0
821 820 0.0
821 821 0.0256868356243261
821 826 0.0
821 2627 -0.000435031759978189
821 2628 -0.000435066625894017
821 2639 -0.00666666666666667
821 4609 -0.000141639614589797
821 4610 -0.000139670760952333
821 4619 -0.0166666666666667
822 776 0.0
822 822 0.0255642316967266
822 823 0.0
822 2629 -0.00666666666666667
822 2635 -0.000164358975070531
822 2636 -0.000164360425623555
822 4614 0.0
822 4615 -0.000435064987171317
822 4616 -0.000435073796892797
822 4617 -0.0166666666666667
823 776 0.0
823 815 0.0
823 820 0.0
823 822 0.0
823 823 0.0320996548633919
823 826 0.0
823 2631 -0.000162062556280765
823 2632 -0.00016460537011256
823 2634 -0.00666666666666667
823 2635 -0.00666666666666667
823 4611 -0.000435069386976257
823 4612 -0.000435069397149482
823 4613 -0.0166666666666667
823 4614 0.0
824 824 0.0333333333333333
824 4614 -0.0166666666666667
824 4615 -0.0166666666666667
825 815 0.0
825 825 0.0256786747351973
825 826 0.0
825 2637 -0.00666666666666667
825 2643 -0.000164358940726689
825 2644 -0.000164360402303031
825 4622 0.0
825 4623 -0.000435064997641161
825 4624 -0.000435073786423246
825 4625 -0.0166666666666667
826 776 0.0
826 815 0.0
826 820 0.0
826 821 0.0
826 823 0.0
826 825 0.0
826 826 0.0320996542943431
826 2639 -0.000162062560143134
826 2640 -0.000164605387803322
826 2642 -0.00666666666666667
826 2643 -0.00666666666666667
826 4619 -0.000435069392178805
826 4620 -0.000435069391946934
826 4621 -0.0166666666666667
826 4622 0.0
827 827 0.0333333333333333
827 4622 -0.0166666666666667
827 4623 -0.0166666666666667
828 828 0.0256124534411806
828 829 0.0
828 831 0.0
828 2645 -0.00666666666666667
828 2649 -0.000431800076739473
828 2650 -0.000438245882118646
828 4631 -0.0166666666666667
828 4647 -0.000140117598274003
828 4648 -0.000143470065352011
829 828 0.0
829 829 0.0319552376669785
829 830 0.0
829 831 0.0
829 2648 -0.00666666666666667
829 2649 -0.00666666666666667
829 2665 -0.000162292777295443
829 2666 -0.000165829805992468
829 4627 -0.000434952598751025
829 4628 -0.000435186141503926
829 4629 -0.0166666666666667
830 829 0.0
830 830 0.0256464487089682
830 832 0.0
830 2653 -0.000435011184592202
830 2654 -0.000435087195563132
830 2656 0.0
830 2665 -0.00666666666666667
830 4627 -0.0166666666666667
830 4635 -0.000139730287993056
830 4636 -0.000141982715456251
831 828 0.0
831 829 0.0
831 831 0.0333333333333333
831 4629 0.0
831 4630 -0.0166666666666667
831 4647 -0.0166666666666667
832 815 0.0
832 830 0.0
832 832 0.0419830852156009
832 834 0.0
832 2651 -0.000162066807231452
832 2652 -0.000164626562654961
832 2655 -0.00666666666666667
832 2656 0.0
832 4633 -0.00043507067764436
832 4634 -0.000435068106476128
832 4635 -0.0166666666666667
832 4638 -0.0166666666666667
833 833 0.0133333333333333
833 2653 -0.00666666666666667
833 2656 -0.00666666666666667
834 832 0.0
834 834 0.0253594622357068
834 835 0.0
834 2655 -0.00043502402358195
834 2656 -0.000435074360637874
834 2657 -0.00666666666666667
834 4637 -0.000141918001868254
834 4638 -0.000139719073147306
834 4639 -0.0166666666666667
835 834 0.0
835 835 0.0319571786575687
835 836 0.0
835 837 0.0
835 2657 -0.000162274431703271
835 2658 -0.00016573095002174
835 2660 -0.00666666666666667
835 2661 -0.00666666666666667
835 4639 -0.000434974886832897
835 4640 -0.000435163868604747
835 4641 -0.0166666666666667
836 835 0.0
836 836 0.0333333333333333
836 837 0.0
836 4641 0.0
836 4642 -0.0166666666666667
836 4643 -0.0166666666666667
837 835 0.0
837 836 0.0
837 837 0.0252660555352815
837 2661 -0.000432079853778009
837 2662 -0.000437974705900793
837 2663 -0.00666666666666667
837 4643 -0.00014010396829879
837 4644 -0.000143405882709704
837 4645 -0.0166666666666667
838 807 0.0
838 838 0.032083331693634
838 839 0.0
838 845 0.0
838 846 0.0
838 869 0.0
838 876 0.0
838 877 0.0
838 884 0.0
838 885 0.0
838 887 0.0
838 888 0.0
838 2667 -0.00666666666666667
838 2743 -0.000435030727375934
838 2744 -0.000435067658311501
838 2753 -0.000435081591675335
838 2754 -0.000435016790462376
838 2765 -0.000435029178909017
838 2766 -0.000435069206480011
838 4651 -0.0166666666666667
838 4738 0.0
838 4741 -0.000139678894290856
838 4742 -0.000141687157028329
838 4745 -0.000139679133300665
838 4746 -0.000141683556731171
838 4773 -0.000139708750660181
838 4774 -0.000141326952141
839 838 0.0
839 839 0.0421628681367203
839 841 0.0
839 842 0.0
839 845 0.0
839 2667 -0.000162519832090693
839 2668 -0.000531411093209674
839 2671 -0.00666666666666667
839 2672 0.0
839 4651 -0.000435116790829976
839 4652 -0.000435021984600299
839 4653 -0.0166666666666667
839 4656 -0.0166666666666667
840 840 0.0133333333333333
840 2669 -0.00666666666666667
840 2672 -0.00666666666666667
841 839 0.0
841 841 0.0256973882949262
841 845 0.0
841 2669 -0.000435144737424842
841 2670 -0.000434953604275158
841 2672 0.0
841 2679 -0.00666666666666667
841 4653 -0.000139445451109797
841 4654 -0.000139963261540874
841 4663 -0.0166666666666667
842 839 0.0
842 842 0.0253811408048402
842 843 0.0
842 2671 -0.000162365832331588
842 2672 -0.00053009382328307
842 2673 -0.00666666666666667
842 4655 -0.000532898885828499
842 4656 -0.00027456739704045
842 4657 -0.0166666666666667
843 842 0.0
843 843 0.0318951479546441
843 2673 -0.000406469352273001
843 2674 -0.000459955486486157
843 2676 -0.00666666666666667
843 2677 -0.00666666666666667
843 4657 -0.000142934406988999
843 4658 -0.00015861161429256
843 4659 -0.0166666666666667
844 844 0.0333333333333333
844 4660 -0.0166666666666667
844 4661 -0.0166666666666667
845 807 0.0
845 838 0.0
845 839 0.0
845 841 0.0
845 845 0.0320991543630684
845 846 0.0
845 2672 0.0
845 2679 -0.000162064188320471
845 2680 -0.000164621776680133
845 2682 -0.00666666666666667
845 2683 -0.00666666666666667
845 4663 -0.000435541715949863
845 4664 -0.000434596353936576
845 4711 -0.0166666666666667
845 4712 0.0
846 807 0.0
846 838 0.0
846 845 0.0
846 846 0.0292550790147875
846 847 0.0
846 852 0.0
846 854 0.0
846 856 0.0
846 857 0.0
846 863 0.0
846 869 0.0
846 2683 -0.000164221437098695
846 2684 -0.000164276463597797
846 2695 -0.000164512437178424
846 2696 -0.000162035132712255
846 2699 -0.000162035093479698
846 2700 -0.000164512451389201
846 2713 -0.00666666666666667
846 4665 -0.000435053772892238
846 4666 -0.000435085010459394
846 4675 -0.00043505987029702
846 4676 -0.000435078913540761
846 4684 0.0
846 4687 -0.000435048849909144
846 4688 -0.000435089932877478
846 4695 -0.0166666666666667
846 4712 0.0
847 846 0.0
847 847 0.0333333333333333
847 4665 -0.0166666666666667
847 4712 -0.0166666666666667
848 848 0.0238543465439773
848 849 0.0
848 2685 -0.00666666666666667
848 4667 -0.0166666666666667
849 848 0.0
849 849 0.0420929736779583
849 851 0.0
849 852 0.0
849 854 0.0
849 2685 -0.000435040484785291
849 2686 -0.00043505790223013
849 2689 -0.00666666666666667
849 2690 0.0
849 4667 -0.00013967077626995
849 4668 -0.000141640063065594
849 4669 -0.0166666666666667
849 4672 -0.0166666666666667
850 850 0.0133333333333333
850 2687 -0.00666666666666667
850 2690 -0.00666666666666667
851 849 0.0
851 851 0.0255502900122648
851 854 0.0
851 2687 -0.000162127341684405
851 2688 -0.000164583013632062
851 2690 0.0
851 2693 -0.00666666666666667
851 4669 -0.000435069330991408
851 4670 -0.000435069453134318
851 4673 -0.0166666666666667
852 807 0.0
852 846 0.0
852 849 0.0
852 852 0.0252824734873802
852 854 0.0
852 857 0.0
852 2689 -0.00016631931656964
852 2690 -0.000166854313971363
852 2701 -0.00666666666666667
852 4671 -0.000140346027430058
852 4672 -0.000140345973839123
852 4681 -0.0166666666666667
853 807 0.0
853 853 0.0255485447377057
853 854 0.0
853 2691 -0.00666666666666667
853 2697 -0.000162065357686449
853 2698 -0.000164618725864026
853 4676 0.0
853 4677 -0.00043504571017424
853 4678 -0.00043509307216945
853 4679 -0.0166666666666667
854 807 0.0
854 846 0.0
854 849 0.0
854 851 0.0
854 852 0.0
854 853 0.0
854 854 0.0322052497845985
854 2690 0.0
854 2693 -0.000435042780427759
854 2694 -0.000435055606761638
854 2696 -0.00666666666666667
854 2697 -0.00666666666666667
854 4673 -0.000139688634719732
854 4674 -0.000141743168415958
854 4675 -0.0166666666666667
854 4676 0.0
855 855 0.0333333333333333
855 4676 -0.0166666666666667
855 4677 -0.0166666666666667
856 846 0.0
856 856 0.025853025944535
856 857 0.0
856 858 0.0
856 2699 -0.00666666666666667
856 2705 -0.000435026047900846
856 2706 -0.000435072336809864
856 4684 0.0
856 4685 -0.000140208513794423
856 4686 -0.000140451251998147
856 4687 -0.0166666666666667
857 807 0.0
857 846 0.0
857 852 0.0
857 856 0.0
857 857 0.0320994819723072
857 2701 -0.00016206373198067
857 2702 -0.00016461123764731
857 2704 -0.00666666666666667
857 2705 -0.00666666666666667
857 4681 -0.000435070648727891
857 4682 -0.000435068135392832
857 4683 -0.0166666666666667
857 4684 0.0
858 856 0.0
858 858 0.0333333333333333
858 4684 -0.0166666666666667
858 4685 -0.0166666666666667
859 859 0.0256614731138163
859 860 0.0
859 862 0.0
859 2707 -0.00666666666666667
859 2711 -0.0004336337897419
859 2712 -0.000436454594164531
859 4693 -0.0166666666666667
859 4709 -0.000139755721134129
859 4710 -0.000141707074016602
860 859 0.0
860 860 0.0319693244854589
860 861 0.0
860 862 0.0
860 2710 -0.00666666666666667
860 2711 -0.00666666666666667
860 2727 -0.000162167689058961
860 2728 -0.000165135297900303
860 4689 -0.000435388199753579
860 4690 -0.000434750258397953
860 4691 -0.0166666666666667
861 860 0.0
861 861 0.0257682962742953
861 863 0.0
861 2715 -0.000417766802147073
861 2716 -0.000450926780658109
861 2718 0.0
861 2727 -0.00666666666666667
861 4689 -0.0166666666666667
861 4697 -0.000139720580884207
861 4698 -0.000139932852514182
862 859 0.0
862 860 0.0
862 862 0.0333333333333333
862 4691 0.0
862 4692 -0.0166666666666667
862 4709 -0.0166666666666667
863 846 0.0
863 861 0.0
863 863 0.0418896828694114
863 865 0.0
863 2713 -0.000435400642028798
863 2714 -0.000434697126891871
863 2717 -0.00666666666666667
863 2718 0.0
863 4695 -0.000142602728611136
863 4696 -0.000158587369045147
863 4697 -0.0166666666666667
863 4700 -0.0166666666666667
864 864 0.0133333333333333
864 2715 -0.00666666666666667
864 2718 -0.00666666666666667
865 863 0.0
865 865 0.025283374015408
865 866 0.0
865 2717 -0.000162927680290126
865 2718 -0.000530230645664085
865 2719 -0.00666666666666667
865 4699 -0.00054616077892574
865 4700 -0.000147442848397544
865 4701 -0.0166666666666667
866 865 0.0
866 866 0.0321707087590769
866 868 0.0
866 2719 -0.000162144345304456
866 2720 -0.000529813749405098
866 2722 -0.00666666666666667
866 2723 -0.00666666666666667
866 4701 -0.000400413710403863
866 4702 -0.000465646679664696
866 4703 -0.0166666666666667
867 867 0.0333333333333333
867 868 0.0
867 4704 -0.0166666666666667
867 4705 -0.0166666666666667
868 866 0.0
868 867 0.0
868 868 0.0252392538739079
868 2723 -0.000407938480218888
868 2724 -0.000458837927071483
868 2725 -0.00666666666666667
868 4703 0.0
868 4704 0.0
868 4705 -0.000140401212229715
868 4706 -0.00014463978982467
868 4707 -0.0166666666666667
869 497 0.0
869 536 0.0
869 776 0.0
869 807 0.0
869 838 0.0
869 846 0.0
869 869 0.032303311739576
869 870 0.0
869 872 0.0
869 876 0.0
869 900 0.0
869 907 0.0
869 908 0.0
869 915 0.0
869 916 0.0
869 919 0.0
869 2729 -0.00666666666666667
869 2805 -0.000435097665884429
869 2806 -0.000435000709733791
869 2815 -0.00043500734172163
869 2816 -0.00043509103689806
869 2827 -0.000435072204818993
869 2828 -0.000435026179922837
869 4713 -0.0166666666666667
869 4800 0.0
869 4803 -0.000139419883587549
869 4804 -0.000140230234433833
869 4807 -0.000139434378884568
869 4808 -0.000140068540591422
869 4835 -0.000139419954077845
869 4836 -0.000140190986545846
870 869 0.0
870 870 0.041913453698146
870 872 0.0
870 873 0.0
870 2729 -0.000162816151525114
870 2730 -0.000168361965007563
870 2733 -0.00666666666666667
870 2734 0.0
870 4713 -0.000435630511714111
870 4714 -0.000434507224229087
870 4715 -0.0166666666666667
870 4718 -0.0166666666666667
871 871 0.0133333333333333
871 2731 -0.00666666666666667
871 2734 -0.00666666666666667
872 869 0.0
872 870 0.0
872 872 0.0256385430489332
872 876 0.0
872 2731 -0.000434980646616621
872 2732 -0.000435117717236683
872 2734 0.0
872 2741 -0.00666666666666667
872 4715 -0.000139539348987166
872 4716 -0.000140774574657894
872 4725 -0.0166666666666667
873 870 0.0
873 873 0.025410127738842
873 874 0.0
873 2733 -0.000391662568195669
873 2734 -0.000470346296009015
873 2735 -0.00666666666666667
873 4717 -0.000559739151621856
873 4718 -0.000144437865847829
873 4719 -0.0166666666666667
874 873 0.0
874 874 0.0321268373345425
874 2735 -0.000317995102343518
874 2736 -0.000506466182711904
874 2738 -0.00666666666666667
874 2739 -0.00666666666666667
874 4719 -0.000141554479709531
874 4720 -0.000543269258690614
874 4721 -0.0166666666666667
875 875 0.0333333333333333
875 4722 -0.0166666666666667
875 4723 -0.0166666666666667
876 838 0.0
876 869 0.0
876 872 0.0
876 876 0.0321000029443719
876 877 0.0
876 2741 -0.000162059230234564
876 2742 -0.000164607827252304
876 2744 -0.00666666666666667
876 2745 -0.00666666666666667
876 4725 -0.000435325182482829
876 4726 -0.000434813392979989
876 4773 -0.0166666666666667
876 4774 0.0
877 838 0.0
877 876 0.0
877 877 0.0296367144183955
877 885 0.0
877 887 0.0
877 888 0.0
877 894 0.0
877 2745 -0.000435067665337828
877 2746 -0.000435030720348007
877 2757 -0.000435056188182045
877 2758 -0.000435042198968284
877 2761 -0.000435043836697356
877 2762 -0.000435054550554352
877 2775 -0.00666666666666667
877 4727 -0.000140180749732543
877 4728 -0.000140418216862212
877 4737 -0.000139671819173707
877 4738 -0.000141643861658325
877 4749 -0.000139671709913232
877 4750 -0.000141645500444457
877 4757 -0.0166666666666667
877 4774 0.0
878 878 0.0333333333333333
878 4727 -0.0166666666666667
878 4774 -0.0166666666666667
879 879 0.0238543465439773
879 880 0.0
879 2747 -0.00666666666666667
879 4729 -0.0166666666666667
880 879 0.0
880 880 0.0419834145363481
880 882 0.0
880 883 0.0
880 2747 -0.000162064554103597
880 2748 -0.000164615465305043
880 2751 -0.00666666666666667
880 4729 -0.000435069320552658
880 4730 -0.000435069463573064
880 4731 -0.0166666666666667
880 4734 -0.0166666666666667
881 881 0.0133333333333333
881 2749 -0.00666666666666667
881 2752 -0.00666666666666667
882 880 0.0
882 882 0.0256581969780162
882 883 0.0
882 885 0.0
882 2749 -0.000435032270976549
882 2750 -0.000435066114983777
882 2751 0.0
882 2752 0.0
882 2755 -0.00666666666666667
882 4731 -0.00013967089331896
882 4732 -0.000141640386974581
882 4735 -0.0166666666666667
883 880 0.0
883 882 0.0
883 883 0.0256861833871667
883 885 0.0
883 888 0.0
883 2751 -0.000435031835475485
883 2752 -0.000435066550409886
883 2763 -0.00666666666666667
883 4733 -0.00014165767970116
883 4734 -0.000139673890220687
883 4743 -0.0166666666666667
884 838 0.0
884 884 0.0255648152871907
884 885 0.0
884 2753 -0.00666666666666667
884 2759 -0.000164341192321289
884 2760 -0.000164366485757635
884 4738 0.0
884 4739 -0.000435057571499996
884 4740 -0.000435081212181971
884 4741 -0.0166666666666667
885 838 0.0
885 877 0.0
885 882 0.0
885 883 0.0
885 884 0.0
885 885 0.0320996762669862
885 888 0.0
885 2755 -0.000162062411240925
885 2756 -0.00016460519676257
885 2758 -0.00666666666666667
885 2759 -0.00666666666666667
885 4735 -0.000435069148260108
885 4736 -0.000435069635865442
885 4737 -0.0166666666666667
885 4738 0.0
886 886 0.0333333333333333
886 4738 -0.0166666666666667
886 4739 -0.0166666666666667
887 838 0.0
887 877 0.0
887 887 0.025678728992606
887 888 0.0
887 2761 -0.00666666666666667
887 2767 -0.000165176323153183
887 2768 -0.000164358865204686
887 4746 0.0
887 4747 -0.000435044658394895
887 4748 -0.000435094123787185
887 4749 -0.0166666666666667
888 838 0.0
888 877 0.0
888 883 0.0
888 885 0.0
888 887 0.0
888 888 0.0321000539630773
888 2763 -0.000162059863256517
888 2764 -0.000164610172315551
888 2766 -0.00666666666666667
888 2767 -0.00666666666666667
888 4743 -0.000435063686986126
888 4744 -0.000435075097036248
888 4745 -0.0166666666666667
888 4746 0.0
889 889 0.0333333333333333
889 4746 -0.0166666666666667
889 4747 -0.0166666666666667
890 890 0.0256124534378156
890 891 0.0
890 893 0.0
890 2769 -0.00666666666666667
890 2773 -0.000431800077704225
890 2774 -0.000438245881184862
890 4755 -0.0166666666666667
890 4771 -0.000140117598304397
890 4772 -0.000143470065501732
891 890 0.0
891 891 0.0319552376748892
891 892 0.0
891 893 0.0
891 2772 -0.00666666666666667
891 2773 -0.00666666666666667
891 2789 -0.00016229277728051
891 2790 -0.000165829805796785
891 4751 -0.00043495258639128
891 4752 -0.000435186153854376
891 4753 -0.0166666666666667
892 891 0.0
892 892 0.0256464472998883
892 894 0.0
892 2777 -0.000435011239879684
892 2778 -0.000435087140296697
892 2780 0.0
892 2789 -0.00666666666666667
892 4751 -0.0166666666666667
892 4759 -0.00013973029423168
892 4760 -0.000141982756437382
893 890 0.0
893 891 0.0
893 893 0.0333333333333333
893 4753 0.0
893 4754 -0.0166666666666667
893 4771 -0.0166666666666667
894 877 0.0
894 892 0.0
894 894 0.0419830890665787
894 896 0.0
894 2775 -0.000162066792004204
894 2776 -0.000164626435077371
894 2779 -0.00666666666666667
894 2780 0.0
894 4757 -0.000435067679897617
894 4758 -0.000435071104218809
894 4759 -0.0166666666666667
894 4762 -0.0166666666666667
895 895 0.0133333333333333
895 2777 -0.00666666666666667
895 2780 -0.00666666666666667
896 894 0.0
896 896 0.0253594585320825
896 897 0.0
896 2779 -0.000435024263236272
896 2780 -0.000435074121043738
896 2781 -0.00666666666666667
896 4761 -0.000141918111126179
896 4762 -0.000139719091240698
896 4763 -0.0166666666666667
897 896 0.0
897 897 0.0319571786801333
897 898 0.0
897 899 0.0
897 2781 -0.000162274431660521
897 2782 -0.000165730949472054
897 2784 -0.00666666666666667
897 2785 -0.00666666666666667
897 4763 -0.000434974852046013
897 4764 -0.00043516390337049
897 4765 -0.0166666666666667
898 897 0.0
898 898 0.0333333333333333
898 899 0.0
898 4765 0.0
898 4766 -0.0166666666666667
898 4767 -0.0166666666666667
899 897 0.0
899 898 0.0
899 899 0.0252660555256694
899 2785 -0.000432079856432105
899 2786 -0.000437974703324669
899 2787 -0.00666666666666667
899 4767 -0.000140103968384359
899 4768 -0.000143405883131452
899 4769 -0.0166666666666667
900 869 0.0
900 900 0.0320861713072603
900 901 0.0
900 907 0.0
900 908 0.0
900 934 0.0
900 938 0.0
900 939 0.0
900 946 0.0
900 947 0.0
900 950 0.0
900 2791 -0.00666666666666667
900 2867 -0.000435123629441637
900 2868 -0.000434974730176162
900 2877 -0.000435051311183006
900 2878 -0.000435047076190058
900 2889 -0.000435028073525391
900 2890 -0.000435070311635941
900 4775 -0.0166666666666667
900 4862 0.0
900 4865 -0.000139674312472574
900 4866 -0.000141660280806241
900 4869 -0.000139703753692155
900 4870 -0.00014130639016794
900 4897 -0.000139676914109848
900 4898 -0.00016675163745268
901 900 0.0
901 901 0.0421628678547669
901 903 0.0
901 904 0.0
901 907 0.0
901 2791 -0.000162519791749041
901 2792 -0.000531411130485371
901 2795 -0.00666666666666667
901 2796 0.0
901 4775 -0.000435139436933837
901 4776 -0.000434999328204409
901 4777 -0.0166666666666667
901 4780 -0.0166666666666667
902 902 0.0133333333333333
902 2793 -0.00666666666666667
902 2796 -0.00666666666666667
903 901 0.0
903 903 0.0256973904451089
903 907 0.0
903 2793 -0.000435144726093062
903 2794 -0.000434953615617772
903 2796 0.0
903 2803 -0.00666666666666667
903 4777 -0.000139445446199877
903 4778 -0.000139963236529218
903 4787 -0.0166666666666667
904 901 0.0
904 904 0.0253811442749607
904 905 0.0
904 2795 -0.000162365825870954
904 2796 -0.000530093736436847
904 2797 -0.00666666666666667
904 4779 -0.000532897137108845
904 4780 -0.00027457225296394
904 4781 -0.0166666666666667
905 904 0.0
905 905 0.0318951480124048
905 2797 -0.000406469238190151
905 2798 -0.000459955572937246
905 2800 -0.00666666666666667
905 2801 -0.00666666666666667
905 4781 -0.000142934406314033
905 4782 -0.000158611602798506
905 4783 -0.0166666666666667
906 906 0.0333333333333333
906 4784 -0.0166666666666667
906 4785 -0.0166666666666667
907 869 0.0
907 900 0.0
907 901 0.0
907 903 0.0
907 907 0.0320991543634817
907 908 0.0
907 2796 0.0
907 2803 -0.00016206418827985
907 2804 -0.000164621776652663
907 2806 -0.00666666666666667
907 2807 -0.00666666666666667
907 4787 -0.000435541725864184
907 4788 -0.000434596343992154
907 4835 -0.0166666666666667
908 869 0.0
908 900 0.0
908 907 0.0
908 908 0.0292550790154387
908 909 0.0
908 916 0.0
908 918 0.0
908 919 0.0
908 925 0.0
908 2807 -0.000164221437102121
908 2808 -0.000164276463596261
908 2819 -0.00016451243717659
908 2820 -0.000162035132711022
908 2823 -0.000162035093478465
908 2824 -0.000164512451387367
908 2837 -0.00666666666666667
908 4789 -0.000435053772712347
908 4790 -0.000435085010639267
908 4799 -0.000435059870304747
908 4800 -0.000435078913533034
908 4808 0.0
908 4811 -0.000435048849877068
908 4812 -0.00043508993290955
908 4819 -0.0166666666666667
908 4835 0.0
908 4836 0.0
909 908 0.0
909 909 0.0333333333333333
909 4789 -0.0166666666666667
909 4836 -0.0166666666666667
910 910 0.0238543465439773
910 911 0.0
910 2809 -0.00666666666666667
910 4791 -0.0166666666666667
911 910 0.0
911 911 0.0420929736778404
911 913 0.0
911 914 0.0
911 2809 -0.000435040484785383
911 2810 -0.000435057902230038
911 2813 -0.00666666666666667
911 4791 -0.000139670776270514
911 4792 -0.000141640063068849
911 4793 -0.0166666666666667
911 4796 -0.0166666666666667
912 912 0.0133333333333333
912 2811 -0.00666666666666667
912 2814 -0.00666666666666667
913 911 0.0
913 913 0.0255502900122961
913 914 0.0
913 916 0.0
913 2811 -0.000162127341684185
913 2812 -0.00016458301363145
913 2813 0.0
913 2814 0.0
913 2817 -0.00666666666666667
913 4793 -0.000435069330990369
913 4794 -0.000435069453135357
913 4797 -0.0166666666666667
914 911 0.0
914 913 0.0
914 914 0.025282473484305
914 916 0.0
914 919 0.0
914 2813 -0.000166319316568879
914 2814 -0.000166854313970595
914 2825 -0.00666666666666667
914 4795 -0.000140346027478983
914 4796 -0.000140345973895094
914 4805 -0.0166666666666667
915 869 0.0
915 915 0.0255485447455677
915 916 0.0
915 2815 -0.00666666666666667
915 2821 -0.000162065357632704
915 2822 -0.000164618725596389
915 4800 0.0
915 4801 -0.000435045710134425
915 4802 -0.00043509307220926
915 4803 -0.0166666666666667
916 869 0.0
916 908 0.0
916 913 0.0
916 914 0.0
916 915 0.0
916 916 0.0322052497810566
916 919 0.0
916 2817 -0.000435042780430306
916 2818 -0.000435055606759091
916 2820 -0.00666666666666667
916 2821 -0.00666666666666667
916 4797 -0.000139688634737237
916 4798 -0.000141743168517026
916 4799 -0.0166666666666667
916 4800 0.0
917 917 0.0333333333333333
917 4800 -0.0166666666666667
917 4801 -0.0166666666666667
918 908 0.0
918 918 0.0258530259407729
918 919 0.0
918 920 0.0
918 2823 -0.00666666666666667
918 2829 -0.000435026048326557
918 2830 -0.000435072336384253
918 4808 0.0
918 4809 -0.000140208513821625
918 4810 -0.000140451252065582
918 4811 -0.0166666666666667
919 869 0.0
919 908 0.0
919 914 0.0
919 916 0.0
919 918 0.0
919 919 0.0320994819774753
919 2825 -0.000162063731945477
919 2826 -0.000164611237471815
919 2828 -0.00666666666666667
919 2829 -0.00666666666666667
919 4805 -0.000435070648695013
919 4806 -0.00043506813542571
919 4807 -0.0166666666666667
919 4808 0.0
920 918 0.0
920 920 0.0333333333333333
920 4808 -0.0166666666666667
920 4809 -0.0166666666666667
921 921 0.0256614731138162
921 922 0.0
921 924 0.0
921 2831 -0.00666666666666667
921 2835 -0.000433633789741903
921 2836 -0.000436454594164528
921 4817 -0.0166666666666667
921 4833 -0.000139755721134129
921 4834 -0.000141707074016603
922 921 0.0
922 922 0.031969324485459
922 923 0.0
922 924 0.0
922 2834 -0.00666666666666667
922 2835 -0.00666666666666667
922 2851 -0.000162167689058961
922 2852 -0.000165135297900302
922 4813 -0.000435388199753534
922 4814 -0.000434750258397998
922 4815 -0.0166666666666667
923 922 0.0
923 923 0.0257682962742878
923 925 0.0
923 2839 -0.000417766802147158
923 2840 -0.000450926780658037
923 2842 0.0
923 2851 -0.00666666666666667
923 4813 -0.0166666666666667
923 4821 -0.000139720580884228
923 4822 -0.000139932852514273
924 921 0.0
924 922 0.0
924 924 0.0333333333333333
924 4815 0.0
924 4816 -0.0166666666666667
924 4833 -0.0166666666666667
925 908 0.0
925 923 0.0
925 925 0.0418896828693844
925 927 0.0
925 2837 -0.000435400642045188
925 2838 -0.000434697126875424
925 2841 -0.00666666666666667
925 2842 0.0
925 4819 -0.000142602728611646
925 4820 -0.000158587369049942
925 4821 -0.0166666666666667
925 4824 -0.0166666666666667
926 926 0.0133333333333333
926 2839 -0.00666666666666667
926 2842 -0.00666666666666667
927 925 0.0
927 927 0.0252833740154073
927 928 0.0
927 2841 -0.000162927680290141
927 2842 -0.000530230645664088
927 2843 -0.00666666666666667
927 4823 -0.000546160778925799
927 4824 -0.000147442848396935
927 4825 -0.0166666666666667
928 927 0.0
928 928 0.0321707087590768
928 930 0.0
928 2843 -0.000162144345304457
928 2844 -0.000529813749405099
928 2846 -0.00666666666666667
928 2847 -0.00666666666666667
928 4825 -0.000400413710403473
928 4826 -0.000465646679664998
928 4827 -0.0166666666666667
929 929 0.0333333333333333
929 930 0.0
929 4828 -0.0166666666666667
929 4829 -0.0166666666666667
930 928 0.0
930 929 0.0
930 930 0.0252392538739078
930 2847 -0.000407938480218909
930 2848 -0.000458837927071467
930 2849 -0.00666666666666667
930 4827 0.0
930 4828 0.0
930 4829 -0.000140401212229715
930 4830 -0.000144639789824673
930 4831 -0.0166666666666667
931 931 0.0320887149633356
931 932 0.0
931 969 0.0
931 970 0.0
931 975 0.0
931 977 0.0
931 980 0.0
931 981 0.0
931 2853 -0.00666666666666667
931 2929 -0.000435057919911321
931 2930 -0.000435040467102555
931 2939 -0.000435040455888697
931 2940 -0.000435057931124197
931 2951 -0.000435050795545137
931 2952 -0.000435047591837534
931 4837 -0.0166666666666667
931 4927 -0.00013967050200607
931 4928 -0.000141638479654203
931 4931 -0.000139699943939323
931 4932 -0.000141286304262073
931 4959 -0.000139670541873139
931 4960 -0.000141637881918782
932 931 0.0
932 932 0.0419834394758251
932 934 0.0
932 935 0.0
932 2853 -0.000162064381314455
932 2854 -0.000164614463272001
932 2857 -0.00666666666666667
932 2858 0.0
932 4837 -0.000435069846225576
932 4838 -0.000435068937899507
932 4839 -0.0166666666666667
932 4842 -0.0166666666666667
933 933 0.0133333333333333
933 2855 -0.00666666666666667
933 2858 -0.00666666666666667
934 900 0.0
934 932 0.0
934 934 0.0255995701724177
934 938 0.0
934 939 0.0
934 2855 -0.00043503292906382
934 2856 -0.000435065457005958
934 2858 0.0
934 2865 -0.00666666666666667
934 4839 -0.000139670406363162
934 4840 -0.000141637605266821
934 4849 -0.0166666666666667
935 932 0.0
935 935 0.0253544285340416
935 936 0.0
935 2857 -0.000435033606033595
935 2858 -0.00043506478014406
935 2859 -0.00666666666666667
935 4841 -0.000142072630916559
935 4842 -0.000139745783560115
935 4843 -0.0166666666666667
936 935 0.0
936 936 0.0319435795329029
936 2859 -0.000162412248298241
936 2860 -0.000166453306564734
936 2862 -0.00666666666666667
936 2863 -0.00666666666666667
936 4843 -0.000434919264262458
936 4844 -0.000435219446910729
936 4845 -0.0166666666666667
937 937 0.0333333333333333
937 4846 -0.0166666666666667
937 4847 -0.0166666666666667
938 900 0.0
938 934 0.0
938 938 0.0320989341466073
938 939 0.0
938 2865 -0.000162067491346244
938 2866 -0.000164637989129536
938 2868 -0.00666666666666667
938 2869 -0.00666666666666667
938 4849 -0.000435070197675724
938 4850 -0.000435068586447952
938 4897 -0.0166666666666667
939 900 0.0
939 934 0.0
939 938 0.0
939 939 0.0291210504532324
939 940 0.0
939 947 0.0
939 949 0.0
939 950 0.0
939 956 0.0
939 2869 -0.000166000837408312
939 2870 -0.000166020054886163
939 2881 -0.000166320189393602
939 2882 -0.000162405090688964
939 2885 -0.000162405940044832
939 2886 -0.000166319952568923
939 2899 -0.00666666666666667
939 4851 -0.000435351553302723
939 4852 -0.000434786972534015
939 4861 -0.00043521436989233
939 4862 -0.000434924344707075
939 4870 0.0
939 4873 -0.00043540796629609
939 4874 -0.000434730445651114
939 4881 -0.0166666666666667
939 4897 0.0
939 4898 0.0
940 939 0.0
940 940 0.0333333333333333
940 4851 -0.0166666666666667
940 4898 -0.0166666666666667
941 941 0.0238543465439773
941 942 0.0
941 2871 -0.00666666666666667
941 4853 -0.0166666666666667
942 941 0.0
942 942 0.0420931105150843
942 944 0.0
942 945 0.0
942 2871 -0.000435040411541543
942 2872 -0.000435057975467458
942 2875 -0.00666666666666667
942 4853 -0.000139670121825768
942 4854 -0.00014163628466859
942 4855 -0.0166666666666667
942 4858 -0.0166666666666667
943 943 0.0133333333333333
943 2873 -0.00666666666666667
943 2876 -0.00666666666666667
944 942 0.0
944 944 0.0255498409722414
944 945 0.0
944 947 0.0
944 950 0.0
944 2873 -0.000162130707049625
944 2874 -0.000164597967653741
944 2875 0.0
944 2876 0.0
944 2879 -0.00666666666666667
944 4855 -0.000435070564583171
944 4856 -0.000435068219538201
944 4859 -0.0166666666666667
945 942 0.0
945 944 0.0
945 945 0.0252819204017893
945 950 0.0
945 2875 -0.000166319143409793
945 2876 -0.000166854049995611
945 2887 -0.00666666666666667
945 4857 -0.000140356103029071
945 4858 -0.00014050037395454
945 4867 -0.0166666666666667
946 900 0.0
946 946 0.0255491014693066
946 947 0.0
946 2877 -0.00666666666666667
946 2883 -0.000162059610339947
946 2884 -0.000164619621806747
946 4862 0.0
946 4863 -0.00043541879196653
946 4864 -0.000434719602197164
946 4865 -0.0166666666666667
947 900 0.0
947 939 0.0
947 944 0.0
947 946 0.0
947 947 0.0322801706716391
947 950 0.0
947 2879 -0.00043500488768599
947 2880 -0.000435093489874442
947 2882 -0.00666666666666667
947 2883 -0.00666666666666667
947 4859 -0.000139419788136554
947 4860 -0.000140223522691785
947 4861 -0.0166666666666667
947 4862 0.0
948 948 0.0333333333333333
948 4862 -0.0166666666666667
948 4863 -0.0166666666666667
949 939 0.0
949 949 0.0258886981903099
949 950 0.0
949 951 0.0
949 2885 -0.00666666666666667
949 2891 -0.000435070247954427
949 2892 -0.000435028137220243
949 4870 0.0
949 4871 -0.000139758462452603
949 4872 -0.000139910115331339
949 4873 -0.0166666666666667
950 900 0.0
950 939 0.0
950 944 0.0
950 945 0.0
950 947 0.0
950 949 0.0
950 950 0.0321000528704652
950 2887 -0.000162059866198233
950 2888 -0.000164606538526818
950 2890 -0.00666666666666667
950 2891 -0.00666666666666667
950 4867 -0.000435064741241859
950 4868 -0.000435074042815189
950 4869 -0.0166666666666667
950 4870 0.0
951 949 0.0
951 951 0.0333333333333333
951 4870 -0.0166666666666667
951 4871 -0.0166666666666667
952 952 0.0254844804391418
952 953 0.0
952 955 0.0
952 2893 -0.00666666666666667
952 2897 -0.00016319727761131
952 2898 -0.000167963560070564
952 4879 -0.0166666666666667
952 4895 -0.000402827943802413
952 4896 -0.000463811391972162
953 952 0.0
953 953 0.0321599842976618
953 954 0.0
953 955 0.0
953 2896 -0.00666666666666667
953 2897 -0.00666666666666667
953 2913 -0.000162643320272068
953 2914 -0.000531763987837333
953 4875 -0.000416148250027581
953 4876 -0.000452623601339539
953 4877 -0.0166666666666667
954 953 0.0
954 954 0.0255020432374561
954 956 0.0
954 2901 -0.000407763611263302
954 2902 -0.000458970290280039
954 2904 0.0
954 2913 -0.00666666666666667
954 4875 -0.0166666666666667
954 4883 -0.000143222946652752
954 4884 -0.000153074744284786
955 952 0.0
955 953 0.0
955 955 0.0333333333333333
955 4877 0.0
955 4878 -0.0166666666666667
955 4895 -0.0166666666666667
956 939 0.0
956 954 0.0
956 956 0.0421427039886231
956 958 0.0
956 2899 -0.000424429129575982
956 2900 -0.000445115815542257
956 2903 -0.00666666666666667
956 2904 0.0
956 4881 -0.000143574443571915
956 4882 -0.000556824893407508
956 4883 -0.0166666666666667
956 4886 -0.0166666666666667
957 957 0.0133333333333333
957 2901 -0.00666666666666667
957 2904 -0.00666666666666667
958 956 0.0
958 958 0.025296448967132
958 959 0.0
958 2903 -0.000322071566303724
958 2904 -0.000504268248287133
958 2905 -0.00666666666666667
958 4885 -0.000143343235945712
958 4886 -0.000140432036984107
958 4887 -0.0166666666666667
959 958 0.0
959 959 0.0319739847535213
959 961 0.0
959 2905 -0.000162136502882231
959 2906 -0.000165003120614181
959 2908 -0.00666666666666667
959 2909 -0.00666666666666667
959 4887 -0.000434113176607574
959 4888 -0.000436022648061584
959 4889 -0.0166666666666667
960 960 0.0333333333333333
960 961 0.0
960 4890 -0.0166666666666667
960 4891 -0.0166666666666667
961 959 0.0
961 960 0.0
961 961 0.0253449783929957
961 2909 -0.000434091712912974
961 2910 -0.00043600208994992
961 2911 -0.00666666666666667
961 4889 0.0
961 4890 0.0
961 4891 -0.000140992307333852
961 4892 -0.000141543817822522
961 4893 -0.0166666666666667
962 962 0.0240847367787418
962 2915 -0.00666666666666667
962 4899 -0.0166666666666667
963 963 0.0419834073413791
963 965 0.0
963 966 0.0
963 2915 -0.000162064603067111
963 2916 -0.000164615562653504
963 2919 -0.00666666666666667
963 4899 -0.000435069391172627
963 4900 -0.000435069392953111
963 4901 -0.0166666666666667
963 4904 -0.0166666666666667
964 964 0.0133333333333333
964 2917 -0.00666666666666667
964 2920 -0.00666666666666667
965 963 0.0
965 965 0.0255994979990795
965 966 0.0
965 969 0.0
965 2917 -0.000435031767299973
965 2918 -0.000435066618573651
965 2919 0.0
965 2920 0.0
965 2927 -0.00666666666666667
965 4901 -0.000139670761673774
965 4902 -0.000141639618752671
965 4911 -0.0166666666666667
966 963 0.0
966 965 0.0
966 966 0.0253691078096668
966 967 0.0
966 2919 -0.000435031759821467
966 2920 -0.000435066626050712
966 2921 -0.00666666666666667
966 4903 -0.000141639617499855
966 4904 -0.000139670761456658
966 4905 -0.0166666666666667
967 966 0.0
967 967 0.0319837098824014
967 2921 -0.000162062535484503
967 2922 -0.000164605264966013
967 2924 -0.00666666666666667
967 2925 -0.00666666666666667
967 4905 -0.00043506939118476
967 4906 -0.000435069392940978
967 4907 -0.0166666666666667
968 968 0.0333333333333333
968 4908 -0.0166666666666667
968 4909 -0.0166666666666667
969 931 0.0
969 965 0.0
969 969 0.032099654300772
969 970 0.0
969 2927 -0.00016206256010449
969 2928 -0.000164605387585609
969 2930 -0.00666666666666667
969 2931 -0.00666666666666667
969 4911 -0.00043506939078783
969 4912 -0.000435069393337908
969 4959 -0.0166666666666667
970 931 0.0
970 969 0.0
970 970 0.0292425276973896
970 975 0.0
970 977 0.0
970 978 0.0
970 980 0.0
970 981 0.0
970 987 0.0
970 2931 -0.000164358956864967
970 2932 -0.000164360413187303
970 2943 -0.000164605382599736
970 2944 -0.000162062559112369
970 2947 -0.000162062559104255
970 2948 -0.000164605382602644
970 2961 -0.00666666666666667
970 4913 -0.000435064997112617
970 4914 -0.000435073786951775
970 4923 -0.000435069390608568
970 4924 -0.00043506939351717
970 4935 -0.00043506939101862
970 4936 -0.000435069393107118
970 4943 -0.0166666666666667
970 4959 0.0
970 4960 0.0
971 971 0.0333333333333333
971 4913 -0.0166666666666667
971 4960 -0.0166666666666667
972 972 0.0238543465439773
972 2933 -0.00666666666666667
972 4915 -0.0166666666666667
973 973 0.042092980418921
973 975 0.0
973 976 0.0
973 2933 -0.000435040480198735
973 2934 -0.000435057906816285
973 2937 -0.00666666666666667
973 4915 -0.000139670744016727
973 4916 -0.000141639876847867
973 4917 -0.0166666666666667
973 4920 -0.0166666666666667
974 974 0.0133333333333333
974 2935 -0.00666666666666667
974 2938 -0.00666666666666667
975 931 0.0
975 970 0.0
975 973 0.0
975 975 0.0255502626963008
975 976 0.0
975 977 0.0
975 978 0.0
975 981 0.0
975 2935 -0.000162127546305523
975 2936 -0.000164583726826487
975 2937 0.0
975 2938 0.0
975 2941 -0.00666666666666667
975 4917 -0.000435069390950543
975 4918 -0.000435069393175195
975 4921 -0.0166666666666667
976 973 0.0
976 975 0.0
976 976 0.0252823579206017
976 981 0.0
976 2937 -0.000166319285296619
976 2938 -0.000166854277186167
976 2949 -0.00666666666666667
976 4919 -0.00014034808818088
976 4920 -0.00014034808808488
976 4929 -0.0166666666666667
977 931 0.0
977 970 0.0
977 975 0.0
977 977 0.0255489355337556
977 978 0.0
977 979 0.0
977 2939 -0.00666666666666667
977 2945 -0.000162062560979488
977 2946 -0.000164605391905931
977 4923 0.0
977 4924 0.0
977 4925 -0.000435069389993829
977 4926 -0.00043506939413191
977 4927 -0.0166666666666667
978 970 0.0
978 975 0.0
978 977 0.0
978 978 0.0322089281766608
978 2941 -0.000435040480266267
978 2942 -0.000435057906748759
978 2944 -0.00666666666666667
978 2945 -0.00666666666666667
978 4921 -0.000139670745303743
978 4922 -0.000141639884277225
978 4923 -0.0166666666666667
979 977 0.0
979 979 0.0333333333333333
979 4924 -0.0166666666666667
979 4925 -0.0166666666666667
980 931 0.0
980 970 0.0
980 980 0.0258549254171622
980 981 0.0
980 982 0.0
980 2947 -0.00666666666666667
980 2953 -0.000435047591829257
980 2954 -0.000435050795553414
980 4931 0.0
980 4932 0.0
980 4933 -0.000140178146812242
980 4934 -0.000140415043122612
980 4935 -0.0166666666666667
981 931 0.0
981 970 0.0
981 975 0.0
981 976 0.0
981 980 0.0
981 981 0.0320997360358936
981 2949 -0.000162062002688691
981 2950 -0.000164602611349319
981 2952 -0.00666666666666667
981 2953 -0.00666666666666667
981 4929 -0.000435069390724191
981 4930 -0.000435069393401547
981 4931 -0.0166666666666667
982 980 0.0
982 982 0.0333333333333333
982 4932 -0.0166666666666667
982 4933 -0.0166666666666667
983 983 0.0255489358069375
983 984 0.0
983 986 0.0
983 2955 -0.00666666666666667
983 2959 -0.000162062559115238
983 2960 -0.000164605382614329
983 4939 0.0
983 4940 0.0
983 4941 -0.0166666666666667
983 4957 -0.000435069390319007
983 4958 -0.000435069393806731
984 983 0.0
984 984 0.0320929801553104
984 985 0.0
984 2958 -0.00666666666666667
984 2959 -0.00666666666666667
984 2975 -0.00043504048019384
984 2976 -0.00043505790682118
984 4937 -0.000139670745278655
984 4938 -0.000141639884131573
984 4939 -0.0166666666666667
985 984 0.0
985 985 0.0255502626954419
985 987 0.0
985 2963 -0.000162127546311749
985 2964 -0.000164583726855365
985 2966 0.0
985 2975 -0.00666666666666667
985 4937 -0.0166666666666667
985 4945 -0.000435069390942508
985 4946 -0.00043506939318323
986 983 0.0
986 986 0.0333333333333333
986 4940 -0.0166666666666667
986 4957 -0.0166666666666667
987 970 0.0
987 985 0.0
987 987 0.042092980417997
987 989 0.0
987 2961 -0.000435040480219567
987 2962 -0.000435057906795455
987 2965 -0.00666666666666667
987 2966 0.0
987 4943 -0.000139670744021023
987 4944 -0.00014163987687317
987 4945 -0.0166666666666667
987 4948 -0.0166666666666667
988 988 0.0133333333333333
988 2963 -0.00666666666666667
988 2966 -0.00666666666666667
989 987 0.0
989 989 0.0249646302547503
989 990 0.0
989 2965 -0.00016631928530802
989 2966 -0.000166854277196931
989 2967 -0.00666666666666667
989 4947 -0.000140348087386128
989 4948 -0.000140348087289433
989 4949 -0.0166666666666667
990 989 0.0
990 990 0.0319837881362066
990 991 0.0
990 992 0.0
990 2967 -0.000162062001821341
990 2968 -0.000164602607032878
990 2970 -0.00666666666666667
990 2971 -0.00666666666666667
990 4949 -0.00043506939119181
990 4950 -0.000435069392933929
990 4951 -0.0166666666666667
991 990 0.0
991 991 0.0333333333333333
991 992 0.0
991 4951 0.0
991 4952 -0.0166666666666667
991 4953 -0.0166666666666667
992 990 0.0
992 991 0.0
992 992 0.0253926391078275
992 2971 -0.000435047603237388
992 2972 -0.000435050784145465
992 2973 -0.00666666666666667
992 4953 -0.000140178145569365
992 4954 -0.000140415043288562
992 4955 -0.0166666666666667
993 1 -0.00666666666666667
993 2 -0.000161423305217256
993 993 0.00755721724764776
993 994 -6.22132993821363e-10
994 2 -0.000161424187158656
994 993 -4.21583401256608e-12
994 994 0.00822717713000382
995 3 -0.00666666666666667
995 4 -0.000434980740464879
995 995 0.00921658221859025
995 996 -0.000622856281165875
995 998 0.0
996 4 -0.000435120576273735
996 995 -0.000671472362675334
996 996 0.0092658242581899
997 2 -0.00666666666666667
997 5 -0.000434980401777351
997 997 0.00921598015968093
997 998 -0.000622803871309167
998 2 0.0
998 3 -0.00666666666666667
998 4 0.0
998 5 -0.000435120927891996
998 995 0.0
998 997 -0.00067135018524226
998 998 0.00926515487581706
999 5 -0.00666666666666667
999 6 -0.000161423181596792
999 999 0.0075572189664726
999 1000 -7.95366002646085e-10
999 2983 0.0
1000 6 -0.00016142431077912
1000 999 -5.4093512811728e-12
1000 1000 0.00822717800583097
1001 1001 0.00926452029956658
1001 1002 -0.000668721208315983
1002 6 -0.00666666666666667
1002 1001 -0.000622281045706828
1002 1002 0.0092044840402563
1003 6 -0.00666666666666667
1003 1003 0.00920291930713102
1003 1004 -0.000622140084769084
1004 1003 -0.000668399798797767
1004 1004 0.00926273190908653
1005 4 -0.00666666666666667
1005 8 -0.000161423317051877
1005 1005 0.00755721877319792
1005 1006 -6.05571814693379e-10
1006 8 -0.000161424175324035
1006 1005 -4.10171929572063e-12
1006 1006 0.00822717790541417
1007 1007 0.00921717278330759
1007 1008 -0.000622958188273658
1008 8 -0.00666666666666667
1008 1007 -0.000671606351121
1008 1008 0.00926596681290394
1009 8 -0.00666666666666667
1009 9 -0.000161423746720074
1009 1009 0.00822730729925379
1009 1010 -2.51546774270035e-10
1010 9 -0.000161423745655838
1010 1009 -2.53113151843113e-10
1010 1010 0.00822722715999002
1011 11 -0.00666666666666667
1011 12 -0.000435014954239531
1011 1011 0.00921687604564088
1011 1012 -0.000622872037532872
1011 2993 0.0
1012 12 -0.000435084898922045
1012 1011 -0.000671540363061453
1012 1012 0.00926585755069536
1013 13 -0.00666666666666667
1013 14 -0.000161423360613602
1013 1013 0.00759121330666193
1013 1014 -5.45377294793036e-10
1013 1016 0.0
1014 14 -0.00016142413176231
1014 1013 -3.81352367097723e-12
1014 1014 0.00822717728074969
1015 12 -0.00666666666666667
1015 14 0.0
1015 15 -0.000161423118685809
1015 1015 0.00755721788134881
1015 1016 -6.95251112369321e-10
1016 13 -0.00666666666666667
1016 14 0.0
1016 15 -0.000161424373690103
1016 1013 0.0
1016 1015 -1.25543672150162e-11
1016 1016 0.0075912139793204
1017 16 -0.00666666666666667
1017 1017 0.00921698284063145
1017 1018 -0.000622877569603532
1018 1017 -0.000671564905209267
1018 1018 0.00926586949940543
1019 14 -0.00666666666666667
1019 17 -0.000435029928828667
1019 1019 0.00921676136558105
1019 1020 -0.000622625142915719
1020 17 -0.000435069283946131
1020 1019 -0.000671305578260985
1020 1020 0.00926561885584749
1021 9 -0.000161424013317901
1021 1021 0.00822722728633255
1021 1022 -2.54284697644518e-12
1022 9 -0.000161423479058011
1022 17 -0.00666666666666667
1022 1021 -3.79408966293652e-10
1022 1022 0.00755732846813902
1023 16 -0.000161423314542718
1023 17 -0.00666666666666667
1023 1023 0.00755732483871393
1023 1024 -6.09067369792561e-10
1024 16 -0.000161424177833195
1024 1023 -4.12630295389445e-12
1024 1024 0.00822717730203972
1025 9 -0.000161423479016896
1025 19 -0.00666666666666667
1025 1025 0.00755728526608244
1025 1026 -3.79466146432812e-10
1026 9 -0.000161424013359016
1026 1025 -2.54314505624485e-12
1026 1026 0.0082272272863895
1027 15 -0.00666666666666667
1027 20 -0.000161423315884339
1027 1027 0.0075572177433612
1027 1028 -6.0717711385301e-10
1028 20 -0.000161424176491573
1028 1027 -4.11297420986846e-12
1028 1028 0.00822717717450133
1029 1029 0.0092658872839021
1029 1030 -0.000671602423890052
1030 20 -0.00666666666666667
1030 1029 -0.000622885394141278
1030 1030 0.00921714903947036
1031 19 -0.000435046874781376
1031 20 -0.00666666666666667
1031 1031 0.00921700338564301
1031 1032 -0.000622737470874806
1032 19 -0.00043505161195796
1032 1031 -0.000671444778088914
1032 1032 0.0092657344634761
1033 22 -0.00666666666666667
1033 1033 0.0089711944236558
1033 1034 -0.000607757345476577
1034 1033 -0.00060681477628598
1034 1034 0.00923427126759777
1035 1035 0.00921865858272335
1035 1036 -0.000646212455869752
1036 23 -0.00666666666666667
1036 1035 -0.000671454242057298
1036 1036 0.00929466342228659
1037 22 -0.0001617785121872
1037 23 -0.00666666666666667
1037 1037 0.00825745086852653
1037 1038 -2.25014212014959e-08
1038 22 -0.000161068980188712
1038 1037 -9.32628952743547e-07
1038 1038 0.00822685297950878
1039 9 -0.00666666666666667
1039 26 -0.000438009740604287
1039 1039 0.00921887387061852
1039 1040 -0.000604501016235683
1040 26 -0.000432217430813423
1040 1039 -0.000575307467536131
1040 1040 0.0091569867747221
1041 24 -0.000357123043190453
1041 27 -0.00666666666666667
1041 1041 0.00877723361706403
1041 1042 -0.000590990555173379
1041 1044 0.0
1042 24 -0.000513335165827105
1042 1041 -0.000541754211244169
1042 1042 0.00920776881757098
1043 26 -0.00666666666666667
1043 28 3.12521876302676e-05
1043 1043 0.00763192105293324
1043 1044 -0.000266005332113615
1044 24 0.0
1044 26 0.0
1044 27 -0.00666666666666667
1044 28 -0.000718933610019259
1044 1041 0.0
1044 1043 -4.71912653584295e-05
1044 1044 0.00861802401723345
1045 28 -0.00666666666666667
1045 29 -0.000131393250908102
1045 1045 0.00757730699043844
1045 1046 -4.05267405870188e-05
1046 29 -0.000556288171480889
1046 1045 -1.76948923798147e-06
1046 1046 0.00875391888040484
1047 1047 0.0092197976434812
1047 1048 -0.000555336710991043
1048 29 -0.00666666666666667
1048 1047 -0.000602143221168288
1048 1048 0.00881585220388428
1049 29 -0.00666666666666667
1049 31 -0.000161423598610936
1049 1049 0.00795402855233808
1049 1050 -2.13417929117085e-10
1050 31 -0.000161423893764976
1050 1049 -2.73140602330699e-12
1050 1050 0.00822716826170043
1051 31 -0.00666666666666667
1051 1051 0.00927693305369737
1051 1052 -0.000671545581861832
1052 1051 -0.000632604553292875
1052 1052 0.00921776054175639
1053 23 -0.00016142354038662
1053 24 -0.00666666666666667
1053 1053 0.00755685732173457
1053 1054 -2.91699488577105e-10
1054 23 -0.000161423951989293
1054 1053 -1.95386460922787e-12
1054 1054 0.0082271322725266
1055 32 -0.00666666666666667
1055 33 -0.00016142330507895
1055 1055 0.0075572170360254
1055 1056 -6.2232680990077e-10
1056 33 -0.000161424187296962
1056 1055 -4.21716748215653e-12
1056 1056 0.00822717689294137
1057 34 -0.00666666666666667
1057 35 -0.000434977413290588
1057 1057 0.00921655770481275
1057 1058 -0.000622859268229517
1057 1060 0.0
1058 35 -0.000435124045681952
1058 1057 -0.000671470405959127
1058 1058 0.00926582520767523
1059 33 -0.00666666666666667
1059 35 0.0
1059 36 -0.000434982364929779
1059 1059 0.00921571954136005
1059 1060 -0.000622560079517477
1060 34 -0.00666666666666667
1060 35 0.0
1060 36 -0.000435118882445508
1060 1057 0.0
1060 1059 -0.00067109490593615
1060 1060 0.00926486481761856
1061 36 -0.00666666666666667
1061 37 -0.000161422464571143
1061 1061 0.00755732514584614
1061 1062 -1.80156095420544e-09
1062 37 -0.000161425027804769
1062 1061 -1.23678884662637e-11
1062 1062 0.00822721902239779
1063 1063 0.00925859295317846
1063 1064 -0.000659675714565077
1064 37 -0.00666666666666667
1064 1063 -0.000620261598377331
1064 1064 0.00916581375466306
1065 37 -0.00666666666666667
1065 1065 0.00818856060767081
1065 1066 -2.21521744718128e-10
1066 1065 -7.36710799666523e-12
1066 1066 0.00822698054922357
1067 35 -0.00666666666666667
1067 39 -0.000161423316033646
1067 1067 0.0075572168350624
1067 1068 -6.06965384602902e-10
1068 39 -0.000161424176342266
1068 1067 -4.11153398251473e-12
1068 1068 0.00822717599389061
1069 1 -0.000435047786080178
1069 1069 0.00921717024009355
1069 1070 -0.000622896101942852
1070 1 -0.000435050661596638
1070 39 -0.00666666666666667
1070 1069 -0.000671607913788692
1070 1070 0.00926589988923042
1071 39 -0.00666666666666667
1071 40 -0.000161423746234547
1071 1071 0.00822715599945274
1071 1072 -2.45036767609788e-10
1072 40 -0.000161423746141366
1072 1071 -2.45104005328257e-10
1072 1072 0.00822714877827463
1073 42 -0.00666666666666667
1073 43 -0.000435014809641986
1073 1073 0.00921687587838842
1073 1074 -0.00062287318211788
1074 43 -0.000435085049702761
1074 1073 -0.000671541321966331
1074 1074 0.00926585851990125
1075 44 -0.00666666666666667
1075 45 -0.000161423359690043
1075 1075 0.0075912125428911
1075 1076 -5.46666909348633e-10
1075 1078 0.0
1076 45 -0.000161424132685869
1076 1075 -3.82274259639388e-12
1076 1076 0.00822717637948597
1077 43 -0.00666666666666667
1077 46 -0.000161423118749988
1077 1077 0.00755721738061322
1077 1078 -6.95179911733616e-10
1078 43 0.0
1078 44 -0.00666666666666667
1078 45 0.0
1078 46 -0.000161424373625924
1078 48 0.0
1078 1075 0.0
1078 1077 -1.25530862526258e-11
1078 1078 0.00759121329234467
1079 1 -0.000435015088300819
1079 47 -0.00666666666666667
1079 1079 0.00921687815467167
1079 1080 -0.000622873658606719
1080 1 -0.000435084759117159
1080 1079 -0.000671542181838103
1080 1080 0.00926585863114167
1081 45 -0.00666666666666667
1081 48 -0.000435018118913463
1081 1081 0.00921669954253361
1081 1082 -0.00062268644859317
1082 48 -0.000435081599403137
1082 1081 -0.000671349556748096
1082 1082 0.00926564688510513
1083 40 -0.000161424006944944
1083 1083 0.00822714890084453
1083 1084 -2.48169403822924e-12
1084 40 -0.000161423485430968
1084 48 -0.00666666666666667
1084 1083 -3.6906871323853e-10
1084 1084 0.00755729660596459
1085 47 -0.000161423313440402
1085 48 -0.00666666666666667
1085 1085 0.00755729867674227
1085 1086 -6.10604701856153e-10
1086 47 -0.00016142417893551
1086 1085 -4.13683822802849e-12
1086 1086 0.00822717650154042
1087 40 -0.000161423485376057
1087 50 -0.00666666666666667
1087 1087 0.00755723750063843
1087 1088 -3.69144828512267e-10
1088 40 -0.000161424006999856
1088 1087 -2.48209213801368e-12
1088 1088 0.00822714890092034
1089 46 -0.00666666666666667
1089 51 -0.000161423315341557
1089 1089 0.00755721735591261
1089 1090 -6.0793629197996e-10
1090 51 -0.000161424177034355
1090 1089 -4.11820697467499e-12
1090 1090 0.00822717685023799
1091 1 -0.000435058330687057
1091 1091 0.00926588186737324
1091 1092 -0.000671591030490055
1092 1 -0.000435040431898217
1092 51 -0.00666666666666667
1092 1091 -0.000622883850263154
1092 1092 0.00921709452945721
1093 50 -0.000435040431700919
1093 51 -0.00666666666666667
1093 1093 0.00921703017052688
1093 1094 -0.000622834247686288
1094 50 -0.000435058330932034
1094 1093 -0.000671537494669818
1094 1094 0.0092658135750096
1095 53 -0.00666666666666667
1095 1095 0.00755832397448807
1095 1096 -6.09957135264494e-10
1096 1095 -4.11138722941706e-12
1096 1096 0.00822725821738185
1097 1097 0.0092602455387355
1097 1098 -0.000663176099841847
1098 54 -0.00666666666666667
1098 1097 -0.000621022213891748
1098 1098 0.00918049665304915
1099 53 -0.000430785237193072
1099 54 -0.00666666666666667
1099 1099 0.00917940522365196
1099 1100 -0.000618641376898239
1100 53 -0.00043948820370082
1100 1099 -0.00066085044722177
1100 1100 0.00925939891361088
1101 40 -0.00666666666666667
1101 57 -0.000438342696270234
1101 1101 0.00917698869910051
1101 1102 -0.000560727539174508
1102 57 -0.000431915478441594
1102 1101 -0.000534972138649925
1102 1102 0.00911474373371438
1103 55 -0.000324936573418277
1103 58 -0.00666666666666667
1103 1103 0.00868224382189997
1103 1104 -0.000586502661037227
1103 1106 0.0
1104 55 -0.000544311326562666
1104 1103 -0.000501678846320935
1104 1104 0.00920011158722021
1105 57 -0.00666666666666667
1105 59 1.57694230048914e-05
1105 1105 0.00764753570908803
1105 1106 -0.000242696464819676
1106 55 0.0
1106 57 0.0
1106 58 -0.00666666666666667
1106 59 -0.000703450845393883
1106 1103 0.0
1106 1105 -4.33463713660776e-05
1106 1106 0.00855013113167164
1107 59 -0.00666666666666667
1107 60 4.69561289675323e-05
1107 1107 0.00761282345029158
1107 1108 -0.000289327756212754
1108 60 -0.000734637551356524
1108 1107 -3.85507239315511e-05
1108 1108 0.00896268459992746
1109 1109 0.00822708378408087
1109 1110 -3.44818166136396e-12
1110 60 -0.00666666666666667
1110 1109 -4.53015989481951e-10
1110 1110 0.00765885647535817
1111 60 -0.00666666666666667
1111 62 -0.000161349265278626
1111 1111 0.00765876435591864
1111 1112 -1.02217899652556e-07
1112 62 -0.000161498227097286
1112 1111 -8.50978247264382e-10
1112 1112 0.00822724871883006
1113 62 -0.00666666666666667
1113 1113 0.00899524486155204
1113 1114 -0.000609553123871605
1114 1113 -0.000614036210565927
1114 1114 0.0092372925074526
1115 54 -0.000161422835104516
1115 55 -0.00666666666666667
1115 1115 0.00755888395212829
1115 1116 -1.28278104037022e-09
1116 54 -0.000161424657271396
1116 1115 -8.77868214680283e-12
1116 1116 0.00822721063460546
1117 63 -0.00666666666666667
1117 64 -0.000435023352535622
1117 1117 0.00921694787133059
1117 1118 -0.000622875549102152
1118 64 -0.000435076141203039
1118 1117 -0.000671556689557351
1118 1118 0.009265865389669
1119 65 -0.00666666666666667
1119 66 -0.00043504918884781
1119 1119 0.00921716877978375
1119 1120 -0.000622886313955486
1119 1122 0.0
1120 66 -0.000435049198755422
1120 1119 -0.000671606871920754
1120 1120 0.0092658893821221
1121 64 -0.00666666666666667
1121 67 -0.000161423313380502
1121 1121 0.00755721781611762
1121 1122 -6.10686417053202e-10
1122 64 0.0
1122 65 -0.00666666666666667
1122 66 0.0
1122 67 -0.00016142417899541
1122 70 0.0
1122 1119 0.0
1122 1121 -4.13711697147503e-12
1122 1122 0.00822717710018054
1123 67 -0.00666666666666667
1123 68 -0.000435014945836726
1123 1123 0.00921687647065222
1123 1124 -0.00062287254390923
1124 68 -0.000435084907682568
1124 1123 -0.000671540876850888
1124 1124 0.00926585805993979
1125 1125 0.00822717712936564
1125 1126 -4.11128314368316e-12
1126 68 -0.00666666666666667
1126 1125 -6.06929319768995e-10
1126 1126 0.00755721765744644
1127 68 -0.00666666666666667
1127 1127 0.00755721765744644
1127 1128 -6.06929319768995e-10
1128 1127 -4.11128317078821e-12
1128 1128 0.00822717712936564
1129 66 -0.00666666666666667
1129 70 -0.000161423315570078
1129 1129 0.00755721765497851
1129 1130 -6.07615952871632e-10
1130 70 -0.000161424176805834
1130 1129 -4.11600421982958e-12
1130 1130 0.00822717713082168
1131 32 -0.000435055736276135
1131 1131 0.00926588513557141
1131 1132 -0.000671596264858269
1132 32 -0.00043504291978254
1132 70 -0.00666666666666667
1132 1131 -0.000622885206966811
1132 1132 0.00921711667933668
1133 70 -0.00666666666666667
1133 71 -0.000435042919779555
1133 1133 0.0092171152590385
1133 1134 -0.00062288379883894
1134 71 -0.000435055736280175
1134 1133 -0.000671594794936314
1134 1134 0.00926588365351023
1135 73 -0.00666666666666667
1135 74 -0.000161423305232433
1135 1135 0.00755721765252307
1135 1136 -6.22111732773899e-10
1136 74 -0.00016142418714348
1136 1135 -4.21568902488328e-12
1136 1136 0.00822717714449053
1137 75 -0.00666666666666667
1137 76 -0.000434980660603882
1137 1137 0.00921658397831942
1137 1138 -0.000622858773502414
1137 1140 0.0
1138 76 -0.000435120659531149
1138 1137 -0.000671474831069556
1138 1138 0.00926582672366348
1139 74 -0.00666666666666667
1139 77 -0.000434980641366322
1139 1139 0.00921598447326532
1139 1140 -0.000622806880419023
1140 74 0.0
1140 75 -0.00666666666666667
1140 76 0.0
1140 77 -0.000435120678040122
1140 1137 0.0
1140 1139 -0.000671353605549905
1140 1140 0.0092651574122812
1141 32 -0.000435014872722788
1141 78 -0.00666666666666667
1141 1141 0.00921687727787985
1141 1142 -0.000622873933298063
1142 32 -0.000435084983920161
1142 1141 -0.000671542217009017
1142 1142 0.00926585948649215
1143 76 -0.00666666666666667
1143 79 -0.00016142331338155
1143 1143 0.00755721765246759
1143 1144 -6.10684955957269e-10
1144 79 -0.000161424178994362
1144 1143 -4.1371061100868e-12
1144 1144 0.00822717713313389
1145 71 -0.000435084883176089
1145 1145 0.00926585809258491
1145 1146 -0.000671540933200041
1146 71 -0.000435014969337498
1146 79 -0.00666666666666667
1146 1145 -0.000622872563956516
1146 1146 0.00921687668189401
1147 78 -0.00016142374371879
1147 79 -0.00666666666666667
1147 1147 0.00822694399085341
1147 1148 -4.04402306244332e-10
1148 78 -0.000161423748657122
1148 1147 -4.008510576926e-10
1148 1148 0.00822717693055983
1149 71 -0.00043501492597733
1149 81 -0.00666666666666667
1149 1149 0.00921687631186799
1149 1150 -0.000622872546527166
1150 71 -0.000435084928391771
1150 1149 -0.000671540849649739
1150 1150 0.00926585805293679
1151 77 -0.00666666666666667
1151 82 -0.00016142331337708
1151 1151 0.00755721765385561
1151 1152 -6.10691224557088e-10
1152 82 -0.000161424178998832
1152 1151 -4.13714921327754e-12
1152 1152 0.00822717713418924
1153 32 -0.000435084944266097
1153 1153 0.00926585952122009
1153 1154 -0.000671542290274573
1154 32 -0.000435014910749576
1154 82 -0.00666666666666667
1154 1153 -0.000622873948580169
1154 1154 0.0092168776023528
1155 81 -0.000161423743714628
1155 82 -0.00666666666666667
1155 1155 0.00822694359327637
1155 1156 -4.04398890304639e-10
1156 81 -0.000161423748661284
1156 1155 -4.00841676414764e-10
1156 1156 0.00822717692927779
1157 84 -0.00666666666666667
1157 1157 0.00755721765237516
1157 1158 -6.06929330558722e-10
1158 1157 -4.11128322752054e-12
1158 1158 0.00822717712936565
1159 1159 0.00822717692676107
1159 1160 -3.98503993611502e-10
1160 85 -0.00666666666666667
1160 1159 -4.01916224886799e-10
1160 1160 0.00822695176179768
1161 84 -0.000435016112049724
1161 85 -0.00666666666666667
1161 1161 0.0092168864349208
1161 1162 -0.000622873024631926
1162 84 -0.000435083691563065
1162 1161 -0.000671543136482275
1162 1162 0.00926585913880651
1163 71 -0.00666666666666667
1163 88 -0.00016142330523241
1163 1163 0.00755721765304565
1163 1164 -6.22111764150747e-10
1164 88 -0.000161424187143502
1164 1163 -4.21568935096809e-12
1164 1164 0.00822717714448893
1165 86 -0.000434980660337918
1165 89 -0.00666666666666667
1165 1165 0.00921658397617672
1165 1166 -0.000622858773521976
1165 1168 0.0
1166 86 -0.000435120659808484
1166 1165 -0.00067147483068897
1166 1166 0.00926582672355138
1167 88 -0.00666666666666667
1167 90 -0.00043498064134491
1167 1167 0.00921598447384829
1167 1168 -0.000622806883450134
1168 86 0.0
1168 88 0.0
1168 89 -0.00666666666666667
1168 90 -0.000435120678062419
1168 1165 0.0
1168 1167 -0.000671353608399909
1168 1168 0.00926515741287572
1169 90 -0.00666666666666667
1169 91 -0.000161423313471232
1169 1169 0.00755721765241379
1169 1170 -6.10559194893121e-10
1170 91 -0.00016142417890468
1170 1169 -4.13624149795891e-12
1170 1170 0.00822717713298093
1171 1171 0.00822717692676107
1171 1172 -3.98503993617073e-10
1172 91 -0.00666666666666667
1172 1171 -4.01916224778066e-10
1172 1172 0.00822695176179807
1173 91 -0.00666666666666667
1173 93 -0.00043501611204978
1173 1173 0.00921688643492129
1173 1174 -0.000622873024631955
1174 93 -0.000435083691563007
1174 1173 -0.000671543136482392
1174 1174 0.00926585913880657
1175 93 -0.00666666666666667
1175 1175 0.00755721765237515
1175 1176 -6.06929330558735e-10
1176 1175 -4.11128322752062e-12
1176 1176 0.00822717712936565
1177 85 -0.000161423313471232
1177 86 -0.00666666666666667
1177 1177 0.00755721765241102
1177 1178 -6.10559194905281e-10
1178 85 -0.00016142417890468
1178 1177 -4.13624149803294e-12
1178 1178 0.00822717713298093
1179 94 -0.00666666666666667
1179 95 -0.000435016885622779
1179 1179 0.00921689266842156
1179 1180 -0.000622872937769438
1180 95 -0.000435082884886724
1180 1179 -0.000671544215875962
1180 1180 0.00926585946462473
1181 96 -0.00666666666666667
1181 97 -0.000161423360047315
1181 1181 0.00759121301093484
1181 1182 -5.46168929922635e-10
1181 1184 0.0
1182 97 -0.000161424132328597
1182 1181 -3.81917589201342e-12
1182 1182 0.00822717717091627
1183 95 -0.00666666666666667
1183 98 -0.000161423119061157
1183 1183 0.00755721782869739
1183 1184 -6.948353270042e-10
1184 95 0.0
1184 96 -0.00666666666666667
1184 97 0.0
1184 98 -0.000161424373314755
1184 1181 0.0
1184 1183 -1.25468645423564e-11
1184 1184 0.0075912136927735
1185 98 -0.00666666666666667
1185 99 -0.000161423181597302
1185 1185 0.0075572189866404
1185 1186 -7.95365292654328e-10
1186 99 -0.00016142431077861
1186 1185 -5.40934653228687e-12
1186 1186 0.00822717800588297
1187 1187 0.00926452030366764
1187 1188 -0.000668721216930223
1188 99 -0.00666666666666667
1188 1187 -0.00062228104752461
1188 1188 0.0092044840778287
1189 99 -0.00666666666666667
1189 1189 0.00920291934460982
1189 1190 -0.000622140086592987
1190 1189 -0.000668399807408692
1190 1190 0.00926273191317288
1191 97 -0.00666666666666667
1191 101 -0.000435022004975031
1191 1191 0.00921682356015443
1191 1192 -0.00062275669699561
1192 101 -0.000435077546786745
1192 1191 -0.000671431390315878
1192 1192 0.00926574695980874
1193 63 -0.000161424178244695
1193 1193 0.00822717725537037
1193 1194 -4.13006082275806e-12
1194 63 -0.000161423314131217
1194 101 -0.00666666666666667
1194 1193 -6.09640569558637e-10
1194 1194 0.00755726759085299
1195 101 -0.00666666666666667
1195 102 -0.000161423485461702
1195 1195 0.00755727139217684
1195 1196 -3.70429925449825e-10
1196 102 -0.00016142400691421
1196 1195 -2.48123277233145e-12
1196 1196 0.00822722962912563
1197 104 -0.00666666666666667
1197 105 -0.000161423305246577
1197 1197 0.007557217656027
1197 1198 -6.22091901724106e-10
1198 105 -0.000161424187129335
1198 1197 -4.21555271070431e-12
1198 1198 0.00822717714627387
1199 106 -0.00666666666666667
1199 107 -0.000434980863637935
1199 1199 0.00921658104872764
1199 1200 -0.000622854034507518
1199 1202 0.0
1200 107 -0.000435120447850457
1200 1199 -0.000671470214801736
1200 1200 0.00926582206155603
1201 105 -0.00666666666666667
1201 108 -0.000434980612246946
1201 1201 0.00921598570305218
1201 1202 -0.000622806719992169
1202 105 0.0
1202 106 -0.00666666666666667
1202 107 0.0
1202 108 -0.000435120708410804
1202 110 0.0
1202 113 0.0
1202 1199 0.0
1202 1201 -0.000671353593598151
1202 1202 0.00926515905834468
1203 63 -0.000161423314059395
1203 109 -0.00666666666666667
1203 1203 0.00755722114123831
1203 1204 -6.09739837378995e-10
1204 63 -0.000161424178316517
1204 1203 -4.13058273432428e-12
1204 1204 0.00822717725546924
1205 107 -0.00666666666666667
1205 110 -0.000161423320520808
1205 1205 0.0075572197920346
1205 1206 -6.00736958190943e-10
1206 110 -0.000161424171855104
1206 1205 -4.06827649196786e-12
1206 1206 0.00822717859850461
1207 102 -0.000161423743701963
1207 1207 0.00822722950591434
1207 1208 -2.53032241614394e-10
1208 102 -0.00016142374867395
1208 110 -0.00666666666666667
1208 1207 -2.45723982778697e-10
1208 1208 0.00822760867484074
1209 109 -0.000435106719725676
1209 110 -0.00666666666666667
1209 1209 0.00926625279535532
1209 1210 -0.00067159611531044
1210 109 -0.000434994029732163
1210 1209 -0.000623222898205733
1210 1210 0.00921718087666401
1211 102 -0.000161423485478032
1211 112 -0.00666666666666667
1211 1211 0.00755728897650832
1211 1212 -3.70407207277357e-10
1212 102 -0.00016142400689788
1212 1211 -2.48111426872892e-12
1212 1212 0.00822722962910301
1213 108 -0.00666666666666667
1213 113 -0.000161423313971484
1213 1213 0.00755721778752638
1213 1214 -6.09861061511917e-10
1214 113 -0.000161424178404428
1214 1213 -4.13141814596678e-12
1214 1214 0.00822717721123181
1215 63 -0.00016142374812038
1215 1215 0.00822717705188663
1215 1216 -4.0095360005481e-10
1216 63 -0.000161423744255533
1216 113 -0.00666666666666667
1216 1215 -4.03734886259138e-10
1216 1216 0.0082269946157798
1217 112 -0.000435022363974353
1217 113 -0.00666666666666667
1217 1217 0.00921678605590702
1217 1218 -0.000622715238127974
1218 112 -0.000435077172536911
1218 1217 -0.000671388823849049
1218 1218 0.00926570506586107
1219 115 -0.00666666666666667
1219 1219 0.00897119442339463
1219 1220 -0.000607757345455319
1220 1219 -0.00060681477620686
1220 1220 0.00923427126754335
1221 1221 0.00921865858631708
1221 1222 -0.000646212508082325
1222 116 -0.00666666666666667
1222 1221 -0.000671454241685536
1222 1222 0.00929466349621914
1223 115 -0.000161778513994175
1223 116 -0.00666666666666667
1223 1223 0.00825745095197305
1223 1224 -2.25014932097671e-08
1224 115 -0.000161068978381738
1224 1223 -9.32632147975482e-07
1224 1224 0.00822685297960726
1225 102 -0.00666666666666667
1225 119 -0.000438162222473089
1225 1225 0.00921982672935078
1225 1226 -0.000604491260294179
1226 119 -0.000432071491834291
1226 1225 -0.000576029289720921
1226 1226 0.00915701687929673
1227 117 -0.000357123790381717
1227 120 -0.00666666666666667
1227 1227 0.00877723644056979
1227 1228 -0.000590990666065798
1228 117 -0.000513334443915505
1228 1227 -0.000541755128362865
1228 1228 0.00920776909864314
1229 119 -0.00666666666666667
1229 121 3.12489112000453e-05
1229 1229 0.00763192860819323
1229 1230 -0.000266001580374522
1230 117 0.0
1230 119 0.0
1230 120 -0.00666666666666667
1230 121 -0.000718930333589037
1230 1229 -4.71912218750692e-05
1230 1230 0.0086180223907746
1231 121 -0.00666666666666667
1231 122 -0.000131393333165155
1231 1231 0.00757730725874165
1231 1232 -4.0526634202654e-05
1232 122 -0.000556288089223836
1232 1231 -1.7694886412437e-06
1232 1232 0.0087539187825871
1233 1233 0.00921979766533967
1233 1234 -0.000555336769390324
1234 122 -0.00666666666666667
1234 1233 -0.000602143233936809
1234 1234 0.00881585236637343
1235 122 -0.00666666666666667
1235 124 -0.000161423598610963
1235 1235 0.00795402864518521
1235 1236 -2.13417891562765e-10
1236 124 -0.000161423893764949
1236 1235 -2.73140627481145e-12
1236 1236 0.00822716826171295
1237 124 -0.00666666666666667
1237 1237 0.00927693305629184
1237 1238 -0.000671545581847467
1238 1237 -0.000632604555455442
1238 1238 0.00921776054189131
1239 116 -0.000161423540387061
1239 117 -0.00666666666666667
1239 1239 0.0075568574052383
1239 1240 -2.91698868024367e-10
1240 116 -0.000161423951988851
1240 1239 -1.95386057816982e-12
1240 1240 0.00822713227244222
1241 125 -0.00666666666666667
1241 126 -0.000435014927902171
1241 1241 0.00921687625100788
1241 1242 -0.000622872462287794
1242 126 -0.000435084926384881
1242 1241 -0.000671540765653113
1242 1242 0.00926585797472437
1243 127 -0.00666666666666667
1243 128 -0.000161423359665572
1243 1243 0.00759121282163092
1243 1244 -5.46703997412867e-10
1244 128 -0.00016142413271034
1244 1243 -3.82298621466253e-12
1244 1244 0.0082271771328336
1245 126 -0.00666666666666667
1245 129 -0.000161423119329893
1245 1245 0.00755721769623336
1245 1246 -6.94537633219151e-10
1246 126 0.0
1246 127 -0.00666666666666667
1246 128 0.0
1246 129 -0.00016142437304602
1246 1245 -1.25414820597383e-11
1246 1246 0.00759121350560285
1247 129 -0.00666666666666667
1247 130 -0.000161423139773136
1247 1247 0.00755721989572245
1247 1248 -8.53932691235368e-10
1248 130 -0.000161424352602776
1248 1247 -5.81368808752401e-12
1248 1248 0.00822717846311052
1249 1249 0.00926237298878907
1249 1250 -0.000667643958464268
1250 130 -0.00666666666666667
1250 1249 -0.000621979743485002
1250 1250 0.00919963618647812
1251 130 -0.00666666666666667
1251 1251 0.00920119115376865
1251 1252 -0.000622121227338204
1252 1251 -0.000667964676147512
1252 1252 0.00926416149864765
1253 128 -0.00666666666666667
1253 132 -0.000435016615284992
1253 1253 0.00921687655493177
1253 1254 -0.000622856729377207
1254 132 -0.000435083166852704
1254 1253 -0.000671527187062299
1254 1254 0.00926584500443678
1255 94 -0.000161424178824619
1255 1255 0.00822717720592584
1255 1256 -4.13549431266715e-12
1256 94 -0.000161423313551293
1256 132 -0.00666666666666667
1256 1255 -6.10450247156119e-10
1256 1256 0.0075572244601556
1257 132 -0.00666666666666667
1257 133 -0.000161423325593204
1257 1257 0.00755722567800457
1257 1258 -5.94277800995967e-10
1258 133 -0.000161424166782708
1258 1257 -4.01936380178026e-12
1258 1258 0.00822719391360228
1259 135 -0.00666666666666667
1259 136 -0.000161423305237979
1259 1259 0.00755721765533357
1259 1260 -6.22103957379089e-10
1259 3241 0.0
1260 136 -0.000161424187137934
1260 1259 -4.21563549128827e-12
1260 1260 0.00822717714640427
1261 137 -0.00666666666666667
1261 138 -0.000434980761705326
1261 1261 0.00921658339535963
1261 1262 -0.000622857239963683
1261 1264 0.0
1262 138 -0.000435120554118332
1262 1261 -0.000671473400089229
1262 1262 0.00926582531946548
1263 136 -0.00666666666666667
1263 138 0.0
1263 139 -0.000434980606570966
1263 1263 0.00921598490375118
1263 1264 -0.000622806775506296
1264 137 -0.00666666666666667
1264 138 0.0
1264 139 -0.000435120714326099
1264 1261 0.0
1264 1263 -0.000671353543894939
1264 1264 0.00926515820468288
1265 94 -0.000161423313542176
1265 140 -0.00666666666666667
1265 1265 0.00755721857194847
1265 1266 -6.10462848248557e-10
1266 94 -0.000161424178833736
1266 1265 -4.1355606257266e-12
1266 1266 0.0082271772059384
1267 138 -0.00666666666666667
1267 141 -0.000161423314617754
1267 1267 0.00755721835822449
1267 1268 -6.08980634819725e-10
1268 141 -0.000161424177758158
1268 1267 -4.12518743024167e-12
1268 1268 0.00822717779878247
1269 133 -0.00016142374754249
1269 1269 0.00822719371500817
1269 1270 -3.91103618326531e-10
1270 133 -0.000161423744833422
1270 141 -0.00666666666666667
1270 1269 -3.93313770364309e-10
1270 1270 0.00822706248393469
1271 140 -0.000435029702345695
1271 141 -0.00666666666666667
1271 1271 0.00921700053762437
1271 1272 -0.0006228763021081
1272 140 -0.000435069519599525
1272 1271 -0.000671567082152386
1272 1272 0.00926586962058314
1273 133 -0.000161423325604669
1273 143 -0.00666666666666667
1273 1273 0.0075572332972829
1273 1274 -5.94261933530201e-10
1274 133 -0.000161424166771243
1274 1273 -4.01928043513829e-12
1274 1274 0.00822719391358647
1275 139 -0.00666666666666667
1275 144 -0.000161423313627734
1275 1275 0.00755721772845493
1275 1276 -6.10342338260453e-10
1276 144 -0.000161424178748178
1276 1275 -4.1347325494371e-12
1276 1276 0.00822717719432444
1277 94 -0.000161423748436264
1277 1277 0.00822717700213157
1277 1278 -4.00997831179622e-10
1278 94 -0.000161423743939648
1278 144 -0.00666666666666667
1278 1277 -4.04232600081692e-10
1278 1278 0.00822696488974702
1279 143 -0.000435018010012214
1279 144 -0.00666666666666667
1279 1279 0.00921687154445822
1279 1280 -0.000622839088072464
1280 143 -0.000435081712497056
1280 1279 -0.000671511051258174
1280 1280 0.00926582874613315
1281 146 -0.00666666666666667
1281 1281 0.0092769610877109
1281 1282 -0.00067154542028501
1282 1281 -0.000632627917074633
1282 1282 0.00921776198086652
1283 1283 0.0092202658401788
1283 1284 -0.000556545745722415
1284 147 -0.00666666666666667
1284 1283 -0.000602408843182564
1284 1284 0.00881922185436607
1285 146 -0.000161423599069664
1285 147 -0.00666666666666667
1285 1285 0.00795594799175567
1285 1286 -2.12776812668013e-10
1286 146 -0.000161423893306248
1286 1285 -2.73445423603752e-12
1286 1286 0.00822716866999695
1287 133 -0.00666666666666667
1287 150 -0.000435150874851761
1287 1287 0.00926998697001006
1287 1288 -0.000674658125777387
1288 150 -0.000434951664732459
1288 1287 -0.000626775693155938
1288 1288 0.00922087193677082
1289 148 -0.000200815543944558
1289 150 0.0
1289 151 -0.00666666666666667
1289 1289 0.00807555110066161
1289 1290 -0.000311775039000434
1290 148 -0.000626132470433444
1290 1289 -0.000161231565052262
1290 1290 0.0089537282363629
1291 150 -0.00666666666666667
1291 152 -8.74932041930874e-06
1291 1291 0.00757712252412545
1291 1292 -0.00018944830778297
1292 150 0.0
1292 151 -0.00666666666666667
1292 152 -0.000678932101969683
1292 1291 -2.30784432560672e-05
1292 1292 0.00832713693082491
1293 152 -0.00666666666666667
1293 153 -0.000161423534312431
1293 1293 0.00755983351837516
1293 1294 -3.00296756336278e-10
1294 153 -0.000161423958063482
1294 1293 -2.01738757027986e-12
1294 1294 0.00822710828992056
1295 1295 0.00921859794240553
1295 1296 -0.000645287749704887
1296 153 -0.00666666666666667
1296 1295 -0.000671461758481383
1296 1296 0.00929336169606829
1297 153 -0.00666666666666667
1297 155 -0.000161499426491679
1297 1297 0.0082546936922522
1297 1298 -1.34857476054616e-08
1298 155 -0.000161348065884233
1298 1297 -2.11366001320516e-07
1298 1298 0.0082277712901225
1299 155 -0.00666666666666667
1299 1299 0.00902089049785162
1299 1300 -0.000611398199404825
1300 1299 -0.00062151217539775
1300 1300 0.00924071304541717
1301 147 -0.00013320388629068
1301 148 -0.00666666666666667
1301 1301 0.00758489435794544
1301 1302 -3.81593418223962e-05
1302 147 -0.000554477536098312
1302 1301 -1.76583046930322e-06
1302 1302 0.00875176249380833
1303 156 -0.00666666666666667
1303 157 -0.000435014018174736
1303 1303 0.00921686856770915
1303 1304 -0.000622872175240222
1304 157 -0.00043508587504165
1304 1303 -0.00067153909488624
1304 1304 0.00926585722647492
1305 158 -0.00666666666666667
1305 159 -0.00043504918866591
1305 1305 0.00921716878281565
1305 1306 -0.000622886318490128
1306 159 -0.000435049198945112
1306 1305 -0.000671606876372485
1306 1306 0.00926588938673533
1307 157 -0.00666666666666667
1307 159 0.0
1307 160 -0.000161423313379015
1307 1307 0.00755721765529914
1307 1308 -6.10688496265457e-10
1308 158 -0.00666666666666667
1308 159 0.0
1308 160 -0.000161424178996897
1308 1307 -4.13713063586915e-12
1308 1308 0.00822717709903769
1309 160 -0.00666666666666667
1309 161 -0.000435014929695106
1309 1309 0.00921687633332718
1309 1310 -0.000622872537796383
1310 161 -0.000435084924514936
1310 1309 -0.000671540846145313
1310 1310 0.00926585804562602
1311 1311 0.00822717712936564
1311 1312 -4.11128314549578e-12
1312 161 -0.00666666666666667
1312 1311 -6.06929320140831e-10
1312 1312 0.00755721765728442
1313 161 -0.00666666666666667
1313 1313 0.00755721765728442
1313 1314 -6.06929320113726e-10
1314 1313 -4.11128314549578e-12
1314 1314 0.00822717712936564
1315 159 -0.00666666666666667
1315 163 -0.000161423313471394
1315 1315 0.00755721765299004
1315 1316 -6.10558967689581e-10
1316 163 -0.000161424178904518
1316 1315 -4.1362398834511e-12
1316 1316 0.00822717713298423
1317 125 -0.000161423748574844
1317 1317 0.0082271769293494
1317 1318 -4.00959182056933e-10
1318 125 -0.000161423743801068
1318 163 -0.00666666666666667
1318 1317 -4.04392079821728e-10
1318 1318 0.00822695177830759
1319 163 -0.00666666666666667
1319 164 -0.000435016114097582
1319 1319 0.00921688645230589
1319 1320 -0.000622873025362695
1320 164 -0.00043508368942757
1320 1319 -0.00067154314033209
1320 1320 0.00926585914058405
1321 166 -0.00666666666666667
1321 167 -0.000435014924421165
1321 1321 0.00921687629980993
1321 1322 -0.000622872547225221
1321 3303 0.0
1322 167 -0.000435084930014524
1322 1321 -0.000671540848018963
1322 1322 0.00926585805277986
1323 168 -0.00666666666666667
1323 169 -0.000435049188237201
1323 1323 0.00921716878048172
1323 1324 -0.000622886319711295
1324 169 -0.000435049199392181
1324 1323 -0.000671606876991212
1324 1324 0.0092658893877213
1325 167 -0.00666666666666667
1325 170 -0.000161423313378622
1325 1325 0.00755721765240897
1325 1326 -6.10689046115111e-10
1326 167 0.0
1326 168 -0.00666666666666667
1326 169 0.0
1326 170 -0.00016142417899729
1326 1325 -4.137134557924e-12
1326 1326 0.00822717709593155
1327 125 -0.000161423313378308
1327 171 -0.00666666666666667
1327 1327 0.00755721765255952
1327 1328 -6.1068950214461e-10
1328 125 -0.000161424178997604
1328 1327 -4.13713742434565e-12
1328 1328 0.00822717713322327
1329 169 -0.00666666666666667
1329 172 -0.000161423315571432
1329 1329 0.00755721765238182
1329 1330 -6.07614053906671e-10
1330 172 -0.00016142417680448
1330 1329 -4.11599099559749e-12
1330 1330 0.00822717713004776
1331 164 -0.000435055716891852
1331 1331 0.00926588367156185
1331 1332 -0.000671594832030015
1332 164 -0.000435042938371769
1332 172 -0.00666666666666667
1332 1331 -0.000622883807548417
1332 1332 0.00921711541879278
1333 171 -0.000435042938371769
1333 172 -0.00666666666666667
1333 1333 0.00921711541854515
1333 1334 -0.000622883807286241
1334 171 -0.000435055716891853
1334 1333 -0.000671594831758395
1334 1334 0.00926588367130479
1335 164 -0.000435014924444715
1335 174 -0.00666666666666667
1335 1335 0.00921687629993509
1335 1336 -0.000622872547158364
1336 164 -0.000435084929989966
1336 1335 -0.000671540847984814
1336 1336 0.00926585805272238
1337 170 -0.00666666666666667
1337 175 -0.000435014924425584
1337 1337 0.00921687628837801
1337 1338 -0.000622872535731676
1338 175 -0.000435084930009957
1338 1337 -0.000671540836043143
1338 1338 0.00926585804082549
1339 125 -0.000161424178997597
1339 1339 0.00822717713322326
1339 1340 -4.13713737102918e-12
1340 125 -0.000161423313378315
1340 175 -0.00666666666666667
1340 1339 -6.10689492032271e-10
1340 1340 0.00755721765729555
1341 174 -0.00016142331337803
1341 175 -0.00666666666666667
1341 1341 0.00755721765728751
1341 1342 -6.10689891716875e-10
1342 174 -0.000161424178997882
1342 1341 -4.13714006582655e-12
1342 1342 0.00822717713311152
1343 177 -0.00666666666666667
1343 1343 0.00755721765237516
1343 1344 -6.06929330558716e-10
1344 1343 -4.11128320041546e-12
1344 1344 0.00822717712936565
1345 1345 0.00822717692676107
1345 1346 -3.98503993603185e-10
1346 178 -0.00666666666666667
1346 1345 -4.01916224778854e-10
1346 1346 0.0082269517617971
1347 177 -0.000435016112049638
1347 178 -0.00666666666666667
1347 1347 0.00921688643492006
1347 1348 -0.000622873024631877
1348 177 -0.000435083691563155
1348 1347 -0.000671543136482094
1348 1348 0.00926585913880641
1349 164 -0.00666666666666667
1349 181 -0.000161423305232395
1349 1349 0.00755721765252316
1349 1350 -6.22111785613204e-10
1350 181 -0.000161424187143517
1350 1349 -4.21568944254191e-12
1350 1350 0.00822717714448714
1351 179 -0.000434980660275586
1351 182 -0.00666666666666667
1351 1351 0.0092165839756504
1351 1352 -0.000622858773502365
1351 1354 0.0
1352 179 -0.000435120659873482
1352 1351 -0.000671474830574549
1352 1352 0.00926582672349993
1353 181 -0.00666666666666667
1353 183 -0.000434980641228885
1353 1353 0.00921598447232674
1353 1354 -0.00062280688336809
1354 179 0.0
1354 181 0.0
1354 182 -0.00666666666666667
1354 183 -0.000435120678183401
1354 1351 0.0
1354 1353 -0.00067135360807864
1354 1354 0.00926515741217366
1355 183 -0.00666666666666667
1355 184 -0.000161423313471232
1355 1355 0.00755721765240872
1355 1356 -6.1055919491897e-10
1356 184 -0.00016142417890468
1356 1355 -4.13624136259383e-12
1356 1356 0.00822717713298094
1357 1357 0.00822717692676107
1357 1358 -3.98503993603536e-10
1358 184 -0.00666666666666667
1358 1357 -4.01916224724625e-10
1358 1358 0.00822695176179712
1359 184 -0.00666666666666667
1359 186 -0.000435016112049641
1359 1359 0.00921688643492009
1359 1360 -0.000622873024631878
1360 186 -0.000435083691563151
1360 1359 -0.000671543136482101
1360 1360 0.00926585913880642
1361 186 -0.00666666666666667
1361 1361 0.00755721765237516
1361 1362 -6.06929330558716e-10
1362 1361 -4.11128320041546e-12
1362 1362 0.00822717712936565
1363 178 -0.000161423313471232
1363 179 -0.00666666666666667
1363 1363 0.0075572176524087
1363 1364 -6.10559194919383e-10
1364 178 -0.00016142417890468
1364 1363 -4.13624144391173e-12
1364 1364 0.00822717713298094
1365 187 -0.00666666666666667
1365 188 -0.000434988625092396
1365 1365 0.00921378384069739
1365 1366 -0.00062009266107749
1366 188 -0.000435112371917261
1366 1365 -0.000668589820131555
1366 1366 0.00926283488586464
1367 189 -0.00666666666666667
1367 190 -0.000161423391697327
1367 1367 0.00761060627573421
1367 1368 -5.02148070051966e-10
1368 190 -0.000161424100678585
1368 1367 -3.58738548769623e-12
1368 1368 0.00822717405269839
1369 188 -0.00666666666666667
1369 190 0.0
1369 191 -0.000161423746187956
1369 1369 0.0075584671297014
1369 1370 -1.97563428050821e-38
1370 189 -0.00666666666666667
1370 190 0.0
1370 191 -0.000161423746187956
1370 1369 8.13151629364128e-20
1370 1370 0.00761068726943638
1371 191 -0.00666666666666667
1371 192 -0.000363404809254292
1371 1371 0.00879694625554016
1371 1372 -0.000571958066866903
1372 192 -0.000507297969422811
1372 1371 -0.000528338181427256
1372 1372 0.00919346567847543
1373 1373 0.00822717710541285
1373 1374 -3.98790879900397e-12
1374 192 -0.00666666666666667
1374 1373 -5.82878441461362e-10
1374 1374 0.00756907608051522
1375 192 -0.00666666666666667
1375 1375 0.00756911094403799
1375 1376 -5.86791272997619e-10
1376 1375 -3.99682676269469e-12
1376 1376 0.00822723940155752
1377 190 -0.00666666666666667
1377 194 -0.000435187611870158
1377 1377 0.00926680195170887
1377 1378 -0.000671618387476766
1378 194 -0.000434916457449105
1378 1377 -0.000623730586218653
1378 1378 0.0092172340863738
1379 156 -0.000161424179076904
1379 1379 0.00822717715380159
1379 1380 -4.13787738555716e-12
1380 156 -0.000161423313299008
1380 194 -0.00666666666666667
1380 1379 -6.10801293217643e-10
1380 1380 0.00755721095967979
1381 194 -0.00666666666666667
1381 195 -0.000161423291382795
1381 1381 0.00755721116190671
1381 1382 -6.41653733272014e-10
1382 195 -0.000161424200993117
1382 1381 -4.34923998820925e-12
1382 1382 0.00822717987065326
1383 197 -0.00666666666666667
1383 198 -0.000161423305233497
1383 1383 0.00755721765349727
1383 1384 -6.22110240351067e-10
1383 3365 0.0
1384 198 -0.000161424187142415
1384 1383 -4.21567878592677e-12
1384 1384 0.00822717714537648
1385 199 -0.00666666666666667
1385 200 -0.000434980686274822
1385 1385 0.00921658402777584
1385 1386 -0.000622858559544565
1385 1388 0.0
1386 200 -0.000435120632764312
1386 1385 -0.000671474653364973
1386 1386 0.00926582657482899
1387 198 -0.00666666666666667
1387 201 -0.000434980627630137
1387 1387 0.00921598454249483
1387 1388 -0.000622806849901958
1388 198 0.0
1388 199 -0.00666666666666667
1388 200 0.0
1388 201 -0.000435120692364289
1388 203 0.0
1388 206 0.0
1388 1385 0.0
1388 1387 -0.000671353578907302
1388 1388 0.00926515761104865
1389 156 -0.000161423313309437
1389 202 -0.00666666666666667
1389 1389 0.00755721769097718
1389 1390 -6.10786879472734e-10
1390 156 -0.000161424179066475
1390 1389 -4.13780156463714e-12
1390 1390 0.00822717715378724
1391 200 -0.00666666666666667
1391 203 -0.000161423313210778
1391 1391 0.00755721775647282
1391 1392 -6.10932451422014e-10
1392 203 -0.000161424179165134
1392 1391 -4.13875277158846e-12
1392 1392 0.00822717731789046
1393 195 -0.000161423748962132
1393 1393 0.00822717965629857
1393 1394 -4.20718048853077e-10
1394 195 -0.00016142374341378
1394 203 -0.00666666666666667
1394 1393 -4.24752159962524e-10
1394 1394 0.00822693037781528
1395 202 -0.00043501251165723
1395 203 -0.00666666666666667
1395 1395 0.00921685570981071
1395 1396 -0.000622871476563669
1396 202 -0.000435087446025793
1396 1395 -0.000671536106102199
1396 1396 0.00926585585423385
1397 195 -0.000161423291392505
1397 205 -0.00666666666666667
1397 1397 0.00755721712453115
1397 1398 -6.41640314610242e-10
1398 195 -0.000161424200983407
1398 1397 -4.34916937807187e-12
1398 1398 0.00822717987063989
1399 201 -0.00666666666666667
1399 206 -0.000161423313488732
1399 1399 0.00755721767391838
1399 1400 -6.10535653474081e-10
1400 206 -0.00016142417888718
1400 1399 -4.13607275117758e-12
1400 1400 0.00822717715805352
1401 156 -0.000161423748561559
1401 1401 0.00822717694987937
1401 1402 -4.01040888608454e-10
1402 156 -0.000161423743814353
1402 206 -0.00666666666666667
1402 1401 -4.04455003494009e-10
1402 1402 0.00822695309202677
1403 205 -0.000435016296291419
1403 206 -0.00666666666666667
1403 1403 0.00921689067116017
1403 1404 -0.000622874572247598
1404 205 -0.000435083499433782
1404 1403 -0.000671545174080842
1404 1404 0.00926586218088496
1405 208 -0.00666666666666667
1405 1405 0.00755944258225673
1405 1406 -6.07550069944511e-10
1406 1405 -4.09900186798689e-12
1406 1406 0.00822725761878752
1407 1407 0.00822717683107232
1407 1408 -3.46590492659272e-12
1408 209 -0.00666666666666667
1408 1407 -3.07429333767334e-10
1408 1408 0.00788944072959345
1409 208 -0.00032732857461085
1409 209 -0.00666666666666667
1409 1409 0.00868864828240666
1409 1410 -0.000585683663662835
1410 208 -0.000542038187704012
1410 1409 -0.000503334320458692
1410 1410 0.00919951403822614
1411 195 -0.00666666666666667
1411 212 -0.000434738589247653
1411 1411 0.00922397396166773
1411 1412 -0.000632212694429039
1412 212 -0.000435372752845944
1412 1411 -0.000680859150263667
1412 1412 0.00927545373694507
1413 210 1.9696832630132e-05
1413 213 -0.00666666666666667
1413 1413 0.00771427725269167
1413 1414 -0.000264816289609959
1414 210 -0.000707378255019124
1414 1413 -4.77633450518534e-05
1414 1414 0.00893589131240557
1415 212 -0.00666666666666667
1415 214 -6.46688794373514e-05
1415 1415 0.00756010628736956
1415 1416 -0.000112888812204125
1416 210 0.0
1416 212 0.0
1416 213 -0.00666666666666667
1416 214 -0.00062301254295164
1416 1415 -9.85505903625682e-06
1416 1416 0.0081827103131001
1416 3395 0.0
1417 214 -0.00666666666666667
1417 215 -0.000161422661148781
1417 1417 0.00755933919789102
1417 1418 -1.52246080895753e-09
1418 215 -0.000161424831227131
1418 1417 -1.04753730850025e-11
1418 1418 0.00822717141726839
1419 1419 0.00822711899108566
1419 1420 -8.03318716673083e-12
1420 215 -0.00666666666666667
1420 1419 -2.21645141852009e-10
1420 1420 0.00819386805739684
1421 215 -0.00666666666666667
1421 217 -0.000429884568296531
1421 1421 0.00917430859668704
1421 1422 -0.000620322134736719
1422 217 -0.000440422631514233
1422 1421 -0.000661288978702212
1422 1422 0.00926073953711441
1423 217 -0.00666666666666667
1423 1423 0.0075574192879666
1423 1424 -6.06500685244875e-10
1424 1423 -4.10903028695347e-12
1424 1424 0.00822717712893873
1425 209 -9.46023952620348e-05
1425 210 -0.00666666666666667
1425 1425 0.00762801677615302
1425 1426 -8.83337217346736e-05
1426 209 -0.000593079027126957
1426 1425 -3.69132365187441e-06
1426 1426 0.00880271406258763
1427 218 -0.00666666666666667
1427 219 -0.000402803578099728
1427 1427 0.00874527436890885
1427 1428 -0.00034646611475053
1428 219 -0.000467868848878249
1428 1427 -0.000345835963857271
1428 1428 0.00898436350079646
1429 220 -0.00666666666666667
1429 221 -0.000340826630558289
1429 1429 0.0087402442947016
1429 1430 -0.000594710214126935
1430 221 -0.000529260041764853
1430 1429 -0.000526324780402007
1430 1430 0.00921019309223168
1431 219 -0.00666666666666667
1431 222 -0.00024611654813724
1431 1431 0.00808745258250311
1431 1432 -0.000295632081822985
1432 219 0.0
1432 220 -0.00666666666666667
1432 221 0.0
1432 222 -0.000598443155917591
1432 1431 -0.000174389744426073
1432 1432 0.00859314073796064
1433 222 -0.00666666666666667
1433 223 -0.000161422660702826
1433 1433 0.0075589448428085
1433 1434 -1.52686212523292e-09
1434 223 -0.000161424831673086
1434 1433 -1.0475664247931e-11
1434 1434 0.00822721248571259
1435 1435 0.00925936813944002
1435 1436 -0.000661330297689516
1436 223 -0.00666666666666667
1436 1435 -0.000620622043504369
1436 1436 0.00917272030438071
1437 223 -0.00666666666666667
1437 1437 0.00917272030438071
1437 1438 -0.000620622043504369
1438 1437 -0.000661330297689516
1438 1438 0.00925936813944002
1439 221 -0.00666666666666667
1439 225 -0.000161423318608058
1439 1439 0.00755772622350077
1439 1440 -6.03371041254018e-10
1440 225 -0.000161424173767854
1440 1439 -4.08856756901034e-12
1440 1440 0.00822717649469903
1441 187 -0.000161423744465432
1441 1441 0.00822717536870335
1441 1442 -4.11459868924218e-10
1442 187 -0.00016142374791048
1442 225 -0.00666666666666667
1442 1441 -4.06417442325602e-10
1442 1442 0.00822733545578738
1443 225 -0.00666666666666667
1443 226 -0.00043507393613999
1443 1443 0.00926605052142811
1443 1444 -0.000671607266693034
1444 226 -0.000435025467270096
1444 1443 -0.000623035876737523
1444 1444 0.00921717853066968
1445 228 -0.00666666666666667
1445 229 -0.000435014930179626
1445 1445 0.0092168763450769
1445 1446 -0.000622872544450323
1446 229 -0.000435084924009661
1446 1445 -0.000671540853956346
1446 1446 0.00926585805410279
1447 230 -0.00666666666666667
1447 231 -0.000435049187797943
1447 1447 0.00921716876912447
1447 1448 -0.000622886312493043
1447 1450 0.0
1448 231 -0.000435049199850251
1448 1447 -0.000671606868732132
1448 1448 0.00926588937934206
1449 229 -0.00666666666666667
1449 232 -0.000161423313317997
1449 1449 0.00755721765477525
1449 1450 -6.10774061235578e-10
1450 229 0.0
1450 230 -0.00666666666666667
1450 231 0.0
1450 232 -0.000161424179057915
1450 1447 0.0
1450 1449 -4.13771902340413e-12
1450 1450 0.00822717709793102
1451 187 -0.00016142331112103
1451 233 -0.00666666666666667
1451 1451 0.00755721488286742
1451 1452 -6.13854083280823e-10
1452 187 -0.000161424181254882
1452 1451 -4.15889664939936e-12
1452 1452 0.00822717557368093
1453 231 -0.00666666666666667
1453 234 -0.000161423315554605
1453 1453 0.00755721765538702
1453 1454 -6.07637651237362e-10
1454 234 -0.000161424176821308
1454 1453 -4.11615339006451e-12
1454 1454 0.00822717712956365
1455 226 -0.000435055941094788
1455 1455 0.00926588470716894
1455 1456 -0.000671595813711089
1456 226 -0.000435042723373921
1456 234 -0.00666666666666667
1456 1455 -0.000622885079077197
1456 1456 0.00921711477741266
1457 233 -0.000435042723384703
1457 234 -0.00666666666666667
1457 1457 0.00921711980798223
1457 1458 -0.000622889987523941
1458 233 -0.000435055941080234
1458 1457 -0.000671600947327989
1458 1458 0.00926588996280538
1459 226 -0.000435014132966002
1459 236 -0.00666666666666667
1459 1459 0.00921687073978888
1459 1460 -0.000622873586970734
1460 226 -0.000435085755332848
1460 1459 -0.000671540718908448
1460 1460 0.00926585856104042
1461 232 -0.00666666666666667
1461 237 -0.000435014144601562
1461 1461 0.00921688118588533
1461 1462 -0.000622883989557962
1462 237 -0.00043508574316086
1462 1461 -0.00067155157814227
1462 1462 0.009265869357144
1463 187 -0.000161424181258488
1463 1463 0.0082271755736859
1463 1464 -4.15892283159718e-12
1464 187 -0.000161423311117424
1464 237 -0.00666666666666667
1464 1463 -6.13859067359255e-10
1464 1464 0.00755721256705854
1465 236 -0.000161423313307974
1465 237 -0.00666666666666667
1465 1465 0.00755721268194403
1465 1466 -6.10787973952621e-10
1466 236 -0.000161424179067938
1466 1465 -4.13779732258982e-12
1466 1466 0.0082271771310954
1467 239 -0.00666666666666667
1467 1467 0.00895231589357398
1467 1468 -0.000606288347917921
1468 1467 -0.000601006644779317
1468 1468 0.00923179444181716
1469 1469 0.00921580902907084
1469 1470 -0.000628092210114751
1470 240 -0.00666666666666667
1470 1469 -0.000671118539167891
1470 1470 0.00927168309130126
1471 239 -0.000161506286311512
1471 240 -0.00666666666666667
1471 1471 0.00823503971979331
1471 1472 -2.87656487025054e-07
1472 239 -0.0001613412060644
1472 1471 -5.10771887614784e-07
1472 1472 0.00822679160087594
1473 226 -0.00666666666666667
1473 243 -0.000161423303638426
1473 1473 0.00755721705065466
1473 1474 -6.24346471180138e-10
1474 243 -0.000161424188737486
1474 1473 -4.23106066889392e-12
1474 1474 0.00822717661766742
1475 241 -0.000434963065954237
1475 244 -0.00666666666666667
1475 1475 0.00921651161171017
1475 1476 -0.000622941366988572
1475 1478 0.0
1476 241 -0.000435139005528702
1476 1475 -0.000671532969891762
1476 1476 0.0092658906634361
1477 243 -0.00666666666666667
1477 245 -0.000434979152196512
1477 1477 0.00921594142114651
1477 1478 -0.000622929217552494
1478 241 0.0
1478 243 0.0
1478 244 -0.00666666666666667
1478 245 -0.000435122229395894
1478 1475 0.0
1478 1477 -0.000671460160302111
1478 1478 0.00926511198239902
1479 245 -0.00666666666666667
1479 246 -0.000161423349940121
1479 1479 0.00755715649452497
1479 1480 -5.59380698263932e-10
1480 246 -0.000161424142435791
1480 1479 -3.78464898874789e-12
1480 1480 0.0082271161563679
1481 1481 0.00921569960061689
1481 1482 -0.000624992481787264
1482 246 -0.00666666666666667
1482 1481 -0.000671199549999528
1482 1482 0.00926820615335867
1483 246 -0.00666666666666667
1483 248 -0.000161430149009246
1483 1483 0.00823042259709223
1483 1484 -6.92727623674653e-08
1484 248 -0.000161417343366666
1484 1483 -8.75293298501571e-08
1484 1484 0.0082272804387027
1485 248 -0.00666666666666667
1485 1485 0.00900314235021752
1485 1486 -0.000610140243508493
1486 1485 -0.000616359389498943
1486 1486 0.00923851413586199
1487 240 -0.000161423386153583
1487 241 -0.00666666666666667
1487 1487 0.0075571769338408
1487 1488 -5.08562496748713e-10
1488 240 -0.000161424106222329
1488 1487 -3.43592701208588e-12
1488 1488 0.00822712657547092
1489 249 -0.00666666666666667
1489 250 -0.00016142330521903
1489 1489 0.00755721682250679
1489 1490 -6.22130465298954e-10
1490 250 -0.000161424187156882
1490 1489 -4.21581532487358e-12
1490 1490 0.00822717706389368
1491 251 -0.00666666666666667
1491 252 -0.000434981132067386
1491 1491 0.00921662497939956
1491 1492 -0.00062289561717041
1491 1494 0.0
1492 252 -0.000435120167645717
1492 1491 -0.000671514002290807
1492 1492 0.009265865742311
1493 250 -0.00666666666666667
1493 253 -0.000434980119724182
1493 1493 0.00921600144320258
1493 1494 -0.000622827422523969
1494 250 0.0
1494 251 -0.00666666666666667
1494 252 0.0
1494 253 -0.00043512122182756
1494 1491 0.0
1494 1493 -0.000671374321788007
1494 1494 0.00926517931888307
1495 253 -0.00666666666666667
1495 254 -0.000161422588303279
1495 1495 0.00755720830543265
1495 1496 -1.6238378921598e-09
1496 254 -0.000161424904072634
1496 1495 -1.11631538525961e-11
1496 1496 0.00822716472453223
1497 1497 0.00822711943021576
1497 1498 -7.77760925671697e-12
1498 254 -0.00666666666666667
1498 1497 -2.22017847039515e-10
1498 1498 0.00819196919955126
1499 254 -0.00666666666666667
1499 1499 0.00917235354741821
1499 1500 -0.000620672923073944
1500 1499 -0.000661205826288644
1500 1500 0.00926095692434544
1501 252 -0.00666666666666667
1501 256 -0.000161423238729729
1501 1501 0.00755720153609774
1501 1502 -7.15311464965949e-10
1502 256 -0.000161424253646183
1502 1501 -4.85738294134179e-12
1502 1502 0.00822716985670068
1503 218 -0.000161430908664597
1503 1503 0.00822673928904943
1503 1504 -3.88518789845462e-08
1504 218 -0.000161416583711315
1504 256 -0.00666666666666667
1504 1503 -4.88041135101126e-08
1504 1504 0.0082206481591674
1505 256 -0.00666666666666667
1505 257 -0.000434149030098187
1505 1505 0.00921114685377609
1505 1506 -0.000623870937176576
1506 257 -0.000435987412204496
1506 1505 -0.000671312500692984
1506 1506 0.00926677062396402
1507 259 -0.00666666666666667
1507 260 -0.000435014671747376
1507 1507 0.00921688078845643
1507 1508 -0.000622879055329304
1508 260 -0.000435085193476965
1508 1507 -0.000671547258120006
1508 1508 0.00926586475383493
1509 261 -0.00666666666666667
1509 262 -0.000435047022783619
1509 1509 0.00921713990189116
1509 1510 -0.000622873878413765
1509 1512 0.0
1510 262 -0.00043505145758269
1510 1509 -0.000671590634431849
1510 1510 0.0092658766226044
1511 260 -0.00666666666666667
1511 263 -0.000161423300794449
1511 1511 0.00755721473567341
1511 1512 -6.28327256337156e-10
1512 260 0.0
1512 261 -0.00666666666666667
1512 262 0.0
1512 263 -0.000161424191581463
1512 265 0.0
1512 268 0.0
1512 1509 0.0
1512 1511 -4.25851668132086e-12
1512 1512 0.0082271609311994
1513 218 -0.000161367227947133
1513 264 -0.00666666666666667
1513 1513 0.00755650259353967
1513 1514 -7.73289585904607e-08
1514 218 -0.000161480264428779
1514 1513 -5.62981055991819e-10
1514 1514 0.00822676761660281
1515 262 -0.00666666666666667
1515 265 -0.000161423318157697
1515 1515 0.0075572229501458
1515 1516 -6.04245617915833e-10
1516 265 -0.000161424174218215
1516 1515 -4.09106119013757e-12
1516 1516 0.0082271830615076
1517 257 -0.000435031452984651
1517 1517 0.00921886702873469
1517 1518 -0.000624556261940502
1518 257 -0.00043506769186495
1518 265 -0.00666666666666667
1518 1517 -0.000673104082698352
1518 1518 0.00926763947624762
1519 264 -0.000435067703423035
1519 265 -0.00666666666666667
1519 1519 0.00926765139731208
1519 1520 -0.00067328356078382
1520 264 -0.000435031441124868
1520 1519 -0.000624573254433248
1520 1520 0.00921873769877605
1521 257 -0.000434950548419928
1521 267 -0.00666666666666667
1521 1521 0.00921794328133559
1521 1522 -0.000624365177556241
1522 257 -0.000435152046333653
1522 1521 -0.000672853471668094
1522 1522 0.00926744434610436
1523 263 -0.00666666666666667
1523 268 -0.000434856382728898
1523 1523 0.00921805866981871
1523 1524 -0.000625447361535429
1524 268 -0.000435250190151688
1524 1523 -0.00067397362691592
1524 1524 0.00926834572012657
1525 218 -0.00016148035496192
1525 1525 0.0082267677378374
1525 1526 -5.63656255578502e-10
1526 218 -0.000161367137413992
1526 268 -0.00666666666666667
1526 1525 -7.74505155958716e-08
1526 1526 0.00755607546000543
1527 267 -0.000161423307528139
1527 268 -0.00666666666666667
1527 1527 0.00755611035298445
1527 1528 -6.19216517642183e-10
1528 267 -0.000161424184847773
1528 1527 -4.18942890780225e-12
1528 1528 0.0082271851876597
1529 270 -0.00666666666666667
1529 1529 0.00920452787793653
1529 1530 -0.00062228324186452
1530 1529 -0.000668731214720833
1530 1530 0.00926452697307078
1531 1531 0.00822724025612168
1531 1532 -3.993708062974e-12
1532 271 -0.00666666666666667
1532 1531 -5.86193188243386e-10
1532 1532 0.00756944692405215
1533 270 -0.000161423207454344
1533 271 -0.00666666666666667
1533 1533 0.00756941303972039
1533 1534 -7.60317731950116e-10
1534 270 -0.000161424284921569
1534 1533 -5.21957340938646e-12
1534 1534 0.00822719049518791
1535 257 -0.00666666666666667
1535 274 6.87960644515915e-06
1535 1535 0.00757138537095577
1535 1536 -0.000221706573191254
1536 274 -0.000694561028834151
1536 1535 -1.54279395379192e-05
1536 1536 0.00891607556388816
1537 272 -0.000114452729937742
1537 275 -0.00666666666666667
1537 1537 0.00791125444579478
1537 1538 -6.44753151430826e-05
1537 1540 0.0
1538 272 -0.00057322869245125
1538 1537 -5.68881226622524e-06
1538 1538 0.00878526723619103
1539 274 -0.00666666666666667
1539 276 -0.000330656818749315
1539 1539 0.00843930969858661
1539 1540 -0.000476898399198093
1540 272 0.0
1540 274 0.0
1540 275 -0.00666666666666667
1540 276 -0.000535638411162092
1540 1537 0.0
1540 1539 -0.000399745648940733
1540 1540 0.00874546494059007
1541 276 -0.00666666666666667
1541 277 -0.000161423276715587
1541 1541 0.00755351606433558
1541 1542 -6.61962104712968e-10
1542 277 -0.000161424215660325
1542 1541 -4.4763018795482e-12
1542 1542 0.00822717544598733
1543 1543 0.00926551780113547
1543 1544 -0.000670824268645126
1544 277 -0.00666666666666667
1544 1543 -0.00062272284099736
1544 1544 0.00921370889062124
1545 277 -0.00666666666666667
1545 279 -0.000434642415203528
1545 1545 0.00921154593743687
1545 1546 -0.000620572207517386
1546 279 -0.000435473406290417
1546 1545 -0.000668579923758682
1546 1546 0.00926326406971372
1547 279 -0.00666666666666667
1547 1547 0.00755816621993721
1547 1548 -6.10348502456841e-10
1548 1547 -4.11326355534032e-12
1548 1548 0.00822725905587259
1549 271 -0.00032383829035147
1549 272 -0.00666666666666667
1549 1549 0.00865106066171478
1549 1550 -0.000557606013013843
1550 271 -0.000544927583290811
1550 1549 -0.000472609065736268
1550 1550 0.00917391259078658
1551 280 -0.00666666666666667
1551 281 -0.000160003730040957
1551 1551 0.00755629729934226
1551 1552 -1.90258327748243e-06
1552 281 -0.000162843762334955
1552 1551 -1.45267309791606e-08
1552 1552 0.00822792910350439
1553 282 -0.00666666666666667
1553 283 -0.000434777562142258
1553 1553 0.0092159158200482
1553 1554 -0.000623871208911141
1553 1556 0.0
1554 283 -0.000435332391625642
1554 1553 -0.000672220539599956
1554 1554 0.00926674480491154
1555 281 -0.00666666666666667
1555 284 -0.000373644623806982
1555 1555 0.008575923647483
1555 1556 -0.000290023568937985
1556 281 0.0
1556 282 -0.00666666666666667
1556 283 0.0
1556 284 -0.00049202635151933
1556 1553 0.0
1556 1555 -0.000270377370496601
1556 1556 0.00893922648721857
1557 284 -0.00666666666666667
1557 285 -0.000200001267706564
1557 1557 0.0080740213625753
1557 1558 -0.000315285081405852
1558 285 -0.000627372315602945
1558 1557 -0.000163000017527142
1558 1558 0.00895741238458846
1559 1559 0.00822721524635506
1559 1560 -3.89036333446228e-12
1560 285 -0.00666666666666667
1560 1559 -5.64092130899273e-10
1560 1560 0.00758050134032894
1561 285 -0.00666666666666667
1561 1561 0.00758050134032894
1561 1562 -5.64092130736643e-10
1562 1561 -3.89036333446228e-12
1562 1562 0.00822721524635506
1563 283 -0.00666666666666667
1563 287 -0.000161423310639775
1563 1563 0.00755675930940021
1563 1564 -6.14515052693168e-10
1564 287 -0.000161424181736137
1564 1563 -4.16185255233358e-12
1564 1564 0.00822717669744772
1565 249 -0.000435111004034049
1565 1565 0.00926583708706146
1565 1566 -0.00067149467206358
1566 249 -0.000434989920105146
1566 287 -0.00666666666666667
1566 1565 -0.000622864427576336
1566 1566 0.00921666478777227
1567 287 -0.00666666666666667
1567 288 -0.000434989920176706
1567 1567 0.00921666834178432
1567 1568 -0.000622867805184998
1568 288 -0.000435111003938865
1568 1567 -0.000671498215917802
1568 1568 0.00926584080673046
1569 290 -0.00666666666666667
1569 291 -0.000161423305232445
1569 1569 0.00755721765249672
1569 1570 -6.22111714812958e-10
1570 291 -0.000161424187143467
1570 1569 -4.21568895545966e-12
1570 1570 0.00822717714449143
1571 292 -0.00666666666666667
1571 293 -0.000434980660285922
1571 1571 0.00921658395801952
1571 1572 -0.000622858755966087
1571 1574 0.0
1572 293 -0.00043512065986283
1572 1571 -0.000671474812281343
1572 1572 0.00926582670501814
1573 291 -0.00666666666666667
1573 294 -0.000434980641844436
1573 1573 0.0092159844803913
1573 1574 -0.000622806885942571
1574 291 0.0
1574 292 -0.00666666666666667
1574 293 0.0
1574 294 -0.000435120677541528
1574 1571 0.0
1574 1573 -0.000671353611750878
1574 1574 0.00926515741571651
1575 249 -0.000435014834120551
1575 295 -0.00666666666666667
1575 1575 0.00921687744869944
1575 1576 -0.000622874450455321
1576 249 -0.00043508502417231
1576 1575 -0.000671542694130693
1576 1576 0.00926585997023654
1577 293 -0.00666666666666667
1577 296 -0.000161423313389233
1577 1577 0.00755721766013063
1577 1578 -6.10674234287949e-10
1578 296 -0.000161424178986679
1578 1577 -4.13703217741734e-12
1578 1578 0.00822717713670986
1579 288 -0.000435084786849818
1579 1579 0.00926586389852729
1579 1580 -0.000671546676413121
1580 288 -0.000435015061692732
1580 296 -0.00666666666666667
1580 1579 -0.000622877919476855
1580 1580 0.00921688294468173
1581 295 -0.000161423743725482
1581 296 -0.00666666666666667
1581 1581 0.00822694462574628
1581 1582 -4.04404639852253e-10
1582 295 -0.000161423748650431
1582 1581 -4.00863023298766e-10
1582 1582 0.00822717693008182
1583 288 -0.000435015088357718
1583 298 -0.00666666666666667
1583 1583 0.00921688317220893
1583 1584 -0.000622877930192895
1584 288 -0.000435084759043768
1584 1583 -0.000671546727788281
1584 1584 0.00926586392288022
1585 294 -0.00666666666666667
1585 299 -0.000161423313375149
1585 1585 0.00755721765142735
1585 1586 -6.10693931490911e-10
1586 299 -0.000161424179000763
1586 1585 -4.13716779390587e-12
1586 1586 0.00822717713361387
1587 249 -0.000435084968865059
1587 1587 0.00926586001868622
1587 1588 -0.000671542796319705
1588 249 -0.000435014887158174
1588 299 -0.00666666666666667
1588 1587 -0.000622874471770935
1588 1588 0.00921687790126752
1589 298 -0.000161423743712989
1589 299 -0.00666666666666667
1589 1589 0.00822694343451955
1589 1590 -4.04386932680777e-10
1590 298 -0.000161423748662923
1590 1589 -4.00827305234236e-10
1590 1590 0.00822717693276292
1591 301 -0.00666666666666667
1591 1591 0.00755853528834143
1591 1592 -6.09517161481543e-10
1592 1591 -4.10907237024926e-12
1592 1592 0.00822725835180459
1593 1593 0.00822699835769964
1593 1594 -5.5250388183715e-12
1594 302 -0.00666666666666667
1594 1593 -2.29769146362662e-10
1594 1594 0.00815277410258054
1595 301 -0.000422563580132134
1595 302 -0.00666666666666667
1595 1595 0.00911683250971321
1595 1596 -0.000614761191522382
1596 301 -0.00044799862421602
1596 1595 -0.000645107775822
1596 1596 0.00925173111512482
1597 288 -0.00666666666666667
1597 305 -0.000161423296248439
1597 1597 0.00755721537399491
1597 1598 -6.34707547989977e-10
1598 305 -0.000161424196127473
1598 1597 -4.30232877656178e-12
1598 1598 0.0082271770566387
1599 303 -0.000434899896421036
1599 306 -0.00666666666666667
1599 1599 0.00921541718649479
1599 1600 -0.000622361407627595
1599 1602 0.0
1600 303 -0.000435204881377558
1600 1599 -0.000670832821913696
1600 1600 0.00926525297165627
1601 305 -0.00666666666666667
1601 307 -0.000434950331860285
1601 1601 0.00921463311000128
1601 1602 -0.000622355873651302
1602 303 0.0
1602 305 0.0
1602 306 -0.00666666666666667
1602 307 -0.000435152283722859
1602 1599 0.0
1602 1601 -0.000670757573686645
1602 1602 0.0092639365865948
1603 307 -0.00666666666666667
1603 308 -0.000161420475113086
1603 1603 0.00755738308037024
1603 1604 -4.57847648567587e-09
1604 308 -0.000161427017262827
1604 1603 -3.18241339520052e-11
1604 1604 0.00822724281267088
1605 1605 0.00822699408685816
1605 1606 -5.69261988097334e-12
1606 308 -0.00666666666666667
1606 1605 -2.28425571690641e-10
1606 1606 0.00815841787771899
1607 308 -0.00666666666666667
1607 310 -0.000423620518084153
1607 1607 0.00912452759982078
1607 1608 -0.000615294574958598
1608 310 -0.000446908164705096
1608 1607 -0.000647134253482418
1608 1608 0.00925273449425249
1609 310 -0.00666666666666667
1609 1609 0.00755849436233489
1609 1610 -6.09618023537666e-10
1610 1609 -4.10955655495479e-12
1610 1610 0.0082272585623787
1611 302 -0.000161419817025353
1611 303 -0.00666666666666667
1611 1611 0.00755742123691063
1611 1612 -5.49637808741221e-09
1612 302 -0.000161427675350559
1612 1611 -3.82880604592768e-11
1612 1612 0.00822725133924321
1613 311 -0.00666666666666667
1613 312 3.97188434436698e-05
1613 1613 0.00758488071339647
1613 1614 -0.000271305840096227
1614 312 -0.000727400265832661
1614 1613 -2.77296855958791e-05
1614 1614 0.00895289465200115
1615 313 -0.00666666666666667
1615 314 -0.000435443117881719
1615 1615 0.00927049386352079
1615 1616 -0.000673646030614467
1615 1618 0.0
1616 314 -0.000434671353469976
1616 1615 -0.000627195195351904
1616 1616 0.0092192716113022
1617 312 -0.00666666666666667
1617 315 -0.000111660189923879
1617 1617 0.00770469472296905
1617 1618 -6.7068366382837e-05
1618 312 0.0
1618 313 -0.00666666666666667
1618 314 0.0
1618 315 -0.000576021232465113
1618 1615 0.0
1618 1617 -3.41374365570676e-06
1618 1618 0.00878401698585971
1619 315 -0.00666666666666667
1619 316 -0.000334801618998244
1619 1619 0.00868845378029186
1619 1620 -0.000561455537392793
1620 316 -0.000534674353093399
1620 1619 -0.000487445867647356
1620 1620 0.00917876821487358
1621 1621 0.00822724019224465
1621 1622 -3.99393159268467e-12
1622 316 -0.00666666666666667
1622 1621 -5.86236000786576e-10
1622 1622 0.00756942275692288
1623 316 -0.00666666666666667
1623 1623 0.00756938783566539
1623 1624 -5.82276441424578e-10
1624 1623 -3.98490203650707e-12
1624 1624 0.00822717710481314
1625 314 -0.00666666666666667
1625 318 -0.000161423299320883
1625 1625 0.00755638508819921
1625 1626 -6.30372643058243e-10
1626 318 -0.00016142419305503
1626 1625 -4.26955668367828e-12
1626 1626 0.00822717559459556
1627 280 -0.000435248914259523
1627 1627 0.00926770146147765
1627 1628 -0.000673347123713349
1628 280 -0.000434857618105281
1628 318 -0.00666666666666667
1628 1627 -0.000624846565957563
1628 1628 0.00921745137370448
1629 318 -0.00666666666666667
1629 319 -0.000161423735549564
1629 1629 0.00822590307325241
1629 1630 -3.17267646894688e-10
1630 319 -0.000161423756826348
1630 1629 -3.01540502789893e-10
1630 1630 0.00822720896113244
1631 321 -0.00666666666666667
1631 322 -0.000435014942481458
1631 1631 0.00921687621618137
1631 1632 -0.000622872302682165
1632 322 -0.00043508491118231
1632 1631 -0.000671540621958411
1632 1632 0.00926585782249826
1633 323 -0.00666666666666667
1633 324 -0.000161423360190818
1633 1633 0.00759121275229192
1633 1634 -5.45969305874372e-10
1633 1636 0.0
1634 324 -0.000161424132185094
1634 1633 -3.81774204087763e-12
1634 1634 0.00822717722380157
1635 322 -0.00666666666666667
1635 324 0.0
1635 325 -0.000161423118220566
1635 1635 0.00755721776450155
1635 1636 -6.95766372129873e-10
1636 323 -0.00666666666666667
1636 324 0.0
1636 325 -0.000161424374155346
1636 1633 0.0
1636 1635 -1.25637202975271e-11
1636 1636 0.00759121342784059
1637 280 -0.000434883815526439
1637 326 -0.00666666666666667
1637 1637 0.00921767423502365
1637 1638 -0.000624857046911454
1638 280 -0.000435221605059343
1638 1637 -0.00067339751012201
1638 1638 0.00926772529096032
1639 324 -0.00666666666666667
1639 327 -0.000435023979094239
1639 1639 0.00921682237061307
1639 1640 -0.000622737221386204
1640 327 -0.000435075488205512
1640 1639 -0.000671414330503464
1640 1640 0.00926573013279845
1641 319 -0.000161424083758228
1641 1641 0.00822720912015356
1641 1642 -3.2198710875226e-12
1642 319 -0.000161423408617684
1642 327 -0.00666666666666667
1642 1641 -4.78141451497208e-10
1642 1642 0.00755727832217654
1643 326 -0.000161423302756024
1643 327 -0.00666666666666667
1643 1643 0.00755727582940854
1643 1644 -6.25584793967119e-10
1644 326 -0.000161424189619888
1644 1643 -4.23979675954428e-12
1644 1644 0.00822717479197861
1645 319 -0.000161423408591031
1645 329 -0.00666666666666667
1645 1645 0.00755725620859361
1645 1646 -4.78178423500335e-10
1646 319 -0.000161424083784881
1646 1645 -3.22006451958004e-12
1646 1646 0.00822720912019038
1647 325 -0.00666666666666667
1647 330 -0.000161423308725767
1647 1647 0.00755721533834745
1647 1648 -6.1721285173222e-10
1648 330 -0.000161424183650145
1648 1647 -4.18199541718482e-12
1648 1648 0.00822717573520459
1649 280 -0.000435144012463656
1649 1649 0.00926779361315625
1649 1650 -0.000673540811814345
1650 280 -0.00043495824591411
1650 330 -0.00666666666666667
1650 1649 -0.000624886867601485
1650 1650 0.00921830845677891
1651 329 -0.00043495818905166
1651 330 -0.00666666666666667
1651 1651 0.00921631021320171
1651 1652 -0.000622763518226994
1652 329 -0.000435144092590822
1652 1651 -0.000671342130465355
1652 1652 0.00926572086598713
1653 332 -0.00666666666666667
1653 1653 0.00755741246850622
1653 1654 -6.06515170668247e-10
1654 1653 -4.10910644194979e-12
1654 1654 0.00822717712895316
1655 1655 0.00822711877443556
1655 1656 -7.74169806703399e-12
1656 333 -0.00666666666666667
1656 1655 -2.2206953473864e-10
1656 1656 0.0081916818627231
1657 332 -0.000429527300766954
1657 333 -0.00666666666666667
1657 1657 0.00917151071300197
1657 1658 -0.000620192759941486
1658 332 -0.000440793399874086
1658 1657 -0.000660635211420097
1658 1658 0.00926043761605101
1659 319 -0.00666666666666667
1659 336 -0.000436533664253623
1659 1659 0.00924569487161716
1659 1660 -0.000641341627123005
1660 336 -0.000433624016341012
1660 1659 -0.000602675681802749
1660 1660 0.00919049697819046
1661 334 -0.000372135275695876
1661 337 -0.00666666666666667
1661 1661 0.00884119022200589
1661 1662 -0.00059786563433025
1661 1664 0.0
1662 334 -0.000498733752802203
1662 1661 -0.000565196699593361
1662 1662 0.00921780464690033
1663 336 -0.00666666666666667
1663 338 3.78159457418905e-05
1663 1663 0.00761083369281832
1663 1664 -0.000269827347276391
1664 334 0.0
1664 336 0.0
1664 337 -0.00666666666666667
1664 338 -0.000725497368130882
1664 1661 0.0
1664 1663 -4.16350633852704e-05
1664 1664 0.00866009136742804
1665 338 -0.00666666666666667
1665 339 -9.81956570690248e-05
1665 1665 0.00760092331739828
1665 1666 -8.38256824281321e-05
1666 339 -0.000589485765319967
1666 1665 -3.20930758282627e-06
1666 1666 0.00879776792041751
1667 1667 0.00822717682684741
1667 1668 -3.49301427021032e-12
1668 339 -0.00666666666666667
1668 1667 -3.03187285772574e-10
1668 1668 0.00790044609360179
1669 339 -0.00666666666666667
1669 341 -0.000333702074783931
1669 1669 0.00871084858846608
1669 1670 -0.000588085060255285
1670 341 -0.0005360136638194
1670 1669 -0.000512295469801532
1670 1670 0.00920289209649227
1671 341 -0.00666666666666667
1671 1671 0.00755933306797651
1671 1672 -6.07789044576713e-10
1672 1671 -4.10021674909237e-12
1672 1672 0.00822725774217296
1673 333 -0.000161422576318977
1673 334 -0.00666666666666667
1673 1673 0.00755666327531444
1673 1674 -1.64049635527082e-09
1674 333 -0.000161424916056935
1674 1673 -1.12741283803981e-11
1674 1674 0.00822716577111988
1675 342 -0.00666666666666667
1675 343 -0.000402798477196059
1675 1675 0.00874524524800944
1675 1676 -0.00034646180241619
1676 343 -0.000467873676471954
1676 1675 -0.000345826974275356
1676 1676 0.00898436011623418
1677 344 -0.00666666666666667
1677 345 -0.00034082730103034
1677 1677 0.00874022409518679
1677 1678 -0.000594686220254122
1677 1680 0.0
1678 345 -0.000529259221222555
1678 1677 -0.000526301953402973
1678 1678 0.00921017399119666
1679 343 -0.00666666666666667
1679 346 -0.00024611621118055
1679 1679 0.00808745335846144
1679 1680 -0.000295632770892417
1680 343 0.0
1680 344 -0.00666666666666667
1680 345 0.0
1680 346 -0.000598443499755276
1680 1677 0.0
1680 1679 -0.000174389979817568
1680 1680 0.00859314451744194
1681 346 -0.00666666666666667
1681 347 -0.000161422660702507
1681 1681 0.00755894485257973
1681 1682 -1.52686256191206e-09
1682 347 -0.000161424831673405
1682 1681 -1.04756674728629e-11
1682 1682 0.00822721248562564
1683 1683 0.00925936813792594
1683 1684 -0.0006613302945024
1684 347 -0.00666666666666667
1684 1683 -0.000620622042811126
1684 1684 0.00917272029101801
1685 347 -0.00666666666666667
1685 1685 0.00917272029101801
1685 1686 -0.000620622042811126
1686 1685 -0.0006613302945024
1686 1686 0.00925936813792594
1687 345 -0.00666666666666667
1687 349 -0.00016142332971229
1687 1687 0.00755773564896643
1687 1688 -5.88248966932235e-10
1688 349 -0.000161424162663622
1688 1687 -3.98147961980706e-12
1688 1688 0.00822718777261857
1689 311 -0.000434897829232995
1689 1689 0.00921784913653544
1689 1690 -0.00062420504488774
1690 311 -0.000435207041701622
1690 349 -0.00666666666666667
1690 1689 -0.000671757497579555
1690 1690 0.00926731518984568
1691 349 -0.00666666666666667
1691 350 -0.000435207087979181
1691 1691 0.00926689880496681
1691 1692 -0.000671588999254514
1692 350 -0.000434897780856481
1692 1691 -0.000623818561754817
1692 1692 0.00921721221696823
1693 352 -0.00666666666666667
1693 353 -0.000161423305428603
1693 1693 0.0075572177843104
1693 1694 -6.21841597575448e-10
1694 353 -0.00016142418694731
1694 1693 -4.21379742453609e-12
1694 1694 0.00822717725634032
1695 354 -0.00666666666666667
1695 355 -0.000434982640822921
1695 1695 0.00921659999696209
1695 1696 -0.000622858575415141
1695 1698 0.0
1696 355 -0.000435118594642042
1696 1695 -0.000671477624444697
1696 1696 0.00926582763556333
1697 353 -0.00666666666666667
1697 355 0.0
1697 356 -0.000434980941091875
1697 1697 0.00921598350730944
1697 1698 -0.000622784369281448
1698 354 -0.00666666666666667
1698 355 0.0
1698 356 -0.000435120365734433
1698 1695 0.0
1698 1697 -0.000671332923411386
1698 1698 0.00926515556236343
1699 311 -0.000435182072257829
1699 357 -0.00666666666666667
1699 1699 0.0092671550960926
1699 1700 -0.000671759302322477
1700 311 -0.000434921773469818
1700 1699 -0.000624058431079941
1700 1700 0.00921784300407064
1701 355 -0.00666666666666667
1701 358 -0.000161423313937937
1701 1701 0.00755721809516292
1701 1702 -6.09922581957833e-10
1702 358 -0.000161424178437975
1702 1701 -4.13174197731702e-12
1702 1702 0.00822717754034535
1703 350 -0.000435078144333427
1703 1703 0.0092658545806862
1703 1704 -0.00067154214282493
1704 350 -0.000435021431652867
1704 358 -0.00666666666666667
1704 1703 -0.000622864166386205
1704 1704 0.0092169226581496
1705 357 -0.00016142374425831
1705 358 -0.00666666666666667
1705 1705 0.00822700548023182
1705 1706 -3.91288606812102e-10
1706 357 -0.000161423748117602
1706 1705 -3.88254230807435e-10
1706 1706 0.00822719359654751
1707 350 -0.000435027766934605
1707 360 -0.00666666666666667
1707 1707 0.00921697677898357
1707 1708 -0.000622866717131422
1708 350 -0.000435071537880043
1708 1707 -0.000671554360684185
1708 1708 0.00926586042794483
1709 356 -0.00666666666666667
1709 361 -0.000161423323758083
1709 1709 0.00755722860146506
1709 1710 -5.96715205847239e-10
1710 361 -0.000161424168617829
1710 1709 -4.03707215866304e-12
1710 1710 0.00822719066601751
1711 311 -0.000434970483470178
1711 1711 0.00921782667546
1711 1712 -0.000623757152955009
1712 311 -0.000435131276171263
1712 361 -0.00666666666666667
1712 1711 -0.000671761723962046
1712 1712 0.0092668269557768
1713 360 -0.000161423752315616
1713 361 -0.00666666666666667
1713 1713 0.00822774267939754
1713 1714 -4.03642926186003e-10
1714 360 -0.000161423740060296
1714 1713 -4.21637432761215e-10
1714 1714 0.00822717766237676
1715 363 -0.00666666666666667
1715 1715 0.00895231589389712
1715 1716 -0.000606288347943506
1716 1715 -0.000601006644879793
1716 1716 0.00923179444186012
1717 1717 0.00921580902981317
1717 1718 -0.000628092231229955
1718 364 -0.00666666666666667
1718 1717 -0.000671118538607028
1718 1718 0.00927168311539479
1719 363 -0.000161506286650737
1719 364 -0.00666666666666667
1719 1719 0.00823503974641245
1719 1720 -2.87656386989065e-07
1720 363 -0.000161341205725175
1720 1719 -5.10772714070998e-07
1720 1720 0.00822679160061134
1721 350 -0.00666666666666667
1721 367 -0.000161423303747212
1721 1721 0.00755722213005034
1721 1722 -6.24194129888607e-10
1722 367 -0.0001614241886287
1722 1721 -4.23003049664174e-12
1722 1722 0.00822717667703955
1723 365 -0.000434963273622004
1723 368 -0.00666666666666667
1723 1723 0.00921651333906867
1723 1724 -0.00062294139975607
1723 1726 0.0
1724 365 -0.000435138788986912
1724 1723 -0.000671533317952462
1724 1724 0.00926589080870137
1725 367 -0.00666666666666667
1725 369 -0.000434980109299934
1725 1725 0.00921595126475714
1725 1726 -0.00062292961761779
1726 365 0.0
1726 367 0.0
1726 368 -0.00666666666666667
1726 369 -0.00043512123141435
1726 1723 0.0
1726 1725 -0.000671462224228685
1726 1726 0.00926511475629529
1727 369 -0.00666666666666667
1727 370 -0.000161423349940938
1727 1727 0.00755715655404279
1727 1728 -5.59379553656162e-10
1728 370 -0.000161424142434974
1728 1727 -3.78464136913797e-12
1728 1728 0.00822711615671049
1729 1729 0.00921569960267614
1729 1730 -0.000624992541148624
1730 370 -0.00666666666666667
1730 1729 -0.000671199548462879
1730 1730 0.00926820621881743
1731 370 -0.00666666666666667
1731 372 -0.00016143014916192
1731 1731 0.00823042266464545
1731 1732 -6.92727437231052e-08
1732 372 -0.000161417343213993
1732 1731 -8.75297413337335e-08
1732 1732 0.00822728043872133
1733 372 -0.00666666666666667
1733 1733 0.00900314235197411
1733 1734 -0.000610140243636165
1734 1733 -0.000616359390013906
1734 1734 0.00923851413610003
1735 364 -0.000161423386153856
1735 365 -0.00666666666666667
1735 1735 0.00755717695498461
1735 1736 -5.08562114575287e-10
1736 364 -0.000161424106222057
1736 1735 -3.43592447834059e-12
1736 1736 0.00822712657561798
1737 373 -0.00666666666666667
1737 374 -0.000161423305160284
1737 1737 0.00755722018474085
1737 1738 -6.22213619794602e-10
1738 374 -0.000161424187215628
1738 1737 -4.21639430439464e-12
1738 1738 0.00822717716142256
1739 375 -0.00666666666666667
1739 376 -0.000434979053168488
1739 1739 0.00921661780771376
1739 1740 -0.00062290655519817
1739 1742 0.0
1740 376 -0.000435122335339392
1740 1739 -0.000671522125948738
1740 1740 0.00926587475408662
1741 374 -0.00666666666666667
1741 377 -0.000434981271968578
1741 1741 0.0092159758057654
1741 1742 -0.00062280592182754
1742 374 0.0
1742 375 -0.00666666666666667
1742 376 0.0
1742 377 -0.000435120020450891
1742 1739 0.0
1742 1741 -0.000671351984885896
1742 1742 0.00926514231021871
1743 377 -0.00666666666666667
1743 378 -0.00016142331557183
1743 1743 0.00755721764997799
1743 1744 -6.07613494988126e-10
1744 378 -0.000161424176804082
1744 1743 -4.11598727890175e-12
1744 1744 0.00822717713025281
1745 1745 0.00926588367987988
1745 1746 -0.000671594845205971
1746 378 -0.00666666666666667
1746 1745 -0.000622883813196616
1746 1746 0.0092171154637583
1747 378 -0.00666666666666667
1747 1747 0.0092171154637583
1747 1748 -0.000622883813196616
1748 1747 -0.000671594845205971
1748 1748 0.00926588367987988
1749 376 -0.00666666666666667
1749 380 -0.000161423235472327
1749 1749 0.00755719622314534
1749 1750 -7.19871721533777e-10
1750 380 -0.000161424256903586
1750 1749 -4.8888276049546e-12
1750 1750 0.00822716411325389
1751 342 -0.000161431110154877
1751 1751 0.00822673885725209
1751 1752 -3.8541448850223e-08
1752 342 -0.000161416382221036
1752 380 -0.00666666666666667
1752 1751 -4.87733280019655e-08
1752 1752 0.00822045888465094
1753 380 -0.00666666666666667
1753 381 -0.000434122085949862
1753 1753 0.00920937424335109
1753 1754 -0.00062258091585473
1754 381 -0.00043601559315759
1754 1753 -0.000669894558723525
1754 1754 0.00926510963371094
1755 383 -0.00666666666666667
1755 384 -0.00043501464088928
1755 1755 0.00921688082460559
1755 1756 -0.000622879363153528
1756 384 -0.00043508522565434
1756 1755 -0.000671547530054927
1756 1756 0.00926586503625059
1757 385 -0.00666666666666667
1757 386 -0.000435045894309902
1757 1757 0.00921714230585231
1757 1758 -0.00062288659099316
1757 1760 0.0
1758 386 -0.000435052634377398
1758 1757 -0.000671602199049514
1758 1758 0.00926588809980974
1759 384 -0.00666666666666667
1759 386 0.0
1759 387 -0.000161423300836046
1759 1759 0.00755721459868404
1759 1760 -6.28265660483508e-10
1760 385 -0.00666666666666667
1760 386 0.0
1760 387 -0.000161424191539866
1760 1757 0.0
1760 1759 -4.25813299026564e-12
1760 1760 0.00822715314376033
1761 342 -0.000161367182761019
1761 388 -0.00666666666666667
1761 1761 0.0075564975785069
1761 1762 -7.7390355988112e-08
1762 342 -0.000161480309614893
1762 1761 -5.6343227138406e-10
1762 1762 0.00822676727708255
1763 386 -0.00666666666666667
1763 389 -0.000161423312108406
1763 1763 0.00755721695458687
1763 1764 -6.12470146931394e-10
1764 389 -0.000161424180267506
1764 1763 -4.14938028726373e-12
1764 1764 0.00822717691631253
1765 381 -0.000435101402844331
1765 1765 0.00926591210512174
1765 1766 -0.000671580853268202
1766 381 -0.000434999127125352
1766 389 -0.00666666666666667
1766 1765 -0.000622933977614012
1766 1766 0.00921680734331617
1767 388 -0.000434999152127107
1767 389 -0.00666666666666667
1767 1767 0.00921831642815978
1767 1768 -0.000624494985629194
1768 388 -0.000435101368436343
1768 1767 -0.000673202190294888
1768 1768 0.00926748120028763
1769 381 -0.000434882942033045
1769 391 -0.00666666666666667
1769 1769 0.00921581685576767
1769 1770 -0.000622887259624104
1770 381 -0.000435222550914837
1770 1769 -0.000671357037929467
1770 1770 0.0092658057269993
1771 387 -0.00666666666666667
1771 392 -0.000434855364031651
1771 1771 0.00921805741531905
1771 1772 -0.000625455737994957
1772 392 -0.000435251251813801
1772 1771 -0.000673980656048902
1772 1772 0.00926835240170619
1773 342 -0.000161480399925955
1773 1773 0.00822676739801933
1773 1774 -5.64105828717065e-10
1774 342 -0.000161367092449957
1774 392 -0.00666666666666667
1774 1773 -7.75116142162273e-08
1774 1774 0.00755607184337712
1775 391 -0.000161423300977685
1775 392 -0.00666666666666667
1775 1775 0.00755610609873923
1775 1776 -6.28041057868922e-10
1776 391 -0.000161424191398227
1776 1775 -4.25254382354865e-12
1776 1776 0.00822717599205483
1777 394 -0.00666666666666667
1777 1777 0.00921687630329096
1777 1778 -0.000622872550846323
1778 1777 -0.000671540851769115
1778 1778 0.00926585805654764
1779 1779 0.00926585809314046
1779 1780 -0.000671540928853904
1780 395 -0.00666666666666667
1780 1779 -0.000622872566927465
1780 1780 0.00921687664468395
1781 394 -0.000161423743718459
1781 395 -0.00666666666666667
1781 1781 0.00822694395609338
1781 1782 -4.04398713049404e-10
1782 394 -0.000161423748657454
1782 1781 -4.00847008848852e-10
1782 1782 0.00822717692924596
1783 381 -0.00666666666666667
1783 398 -0.000161423304820365
1783 1783 0.00755718903530966
1783 1784 -6.22688578366345e-10
1784 398 -0.000161424187555547
1784 1783 -4.2195557004961e-12
1784 1784 0.00822717711474709
1785 396 -0.000434978918685956
1785 399 -0.00666666666666667
1785 1785 0.00921656922225446
1785 1786 -0.000622858176290813
1785 1788 0.0
1786 396 -0.000435122475932554
1786 1785 -0.000671471582389524
1786 1786 0.00926582523607524
1787 398 -0.00666666666666667
1787 400 -0.000434977844183998
1787 1787 0.0092159456573962
1787 1788 -0.000622804669702496
1788 396 0.0
1788 398 0.0
1788 399 -0.00666666666666667
1788 400 -0.000435123594722204
1788 1785 0.0
1788 1787 -0.000671345384731178
1788 1788 0.00926513810679983
1789 400 -0.00666666666666667
1789 401 -0.000161423313380714
1789 1789 0.0075572175534254
1789 1790 -6.10686125296505e-10
1790 401 -0.000161424178995199
1790 1789 -4.13711391502013e-12
1790 1790 0.0082271771333275
1791 1791 0.00926585808945161
1791 1792 -0.000671540921029493
1792 401 -0.00666666666666667
1792 1791 -0.000622872565296268
1792 1792 0.00921687661003383
1793 401 -0.00666666666666667
1793 403 -0.00016142374371817
1793 1793 0.0082269439287884
1793 1794 -4.04398732358933e-10
1794 403 -0.000161423748657742
1794 1793 -4.00846613572566e-10
1794 1794 0.00822717692925124
1795 403 -0.00666666666666667
1795 1795 0.0092168763035597
1795 1796 -0.000622872550859015
1796 1795 -0.000671540851829773
1796 1796 0.00926585805657733
1797 395 -0.0001614233133811
1797 396 -0.00666666666666667
1797 1797 0.00755721760853244
1797 1798 -6.10685584929304e-10
1798 395 -0.000161424178994812
1798 1797 -4.13711033678104e-12
1798 1798 0.00822717713318103
1799 404 -0.00666666666666667
1799 405 -0.000161423305373014
1799 1799 0.00755721841422959
1799 1800 -6.21914612647071e-10
1800 405 -0.000161424187002899
1800 1799 -4.21433625240463e-12
1800 1800 0.00822717706877346
1801 406 -0.00666666666666667
1801 407 -0.000434982794949811
1801 1801 0.00921659272513398
1801 1802 -0.000622849275891169
1801 1804 0.0
1802 407 -0.000435118433992395
1802 1801 -0.000671468254207515
1802 1802 0.00926581888559491
1803 405 -0.00666666666666667
1803 408 -0.00043498034192849
1803 1803 0.0092160177822717
1803 1804 -0.000622828682917879
1804 405 0.0
1804 406 -0.00666666666666667
1804 407 0.0
1804 408 -0.000435120990165656
1804 1801 0.0
1804 1803 -0.00067137759656044
1804 1804 0.009265195659443
1805 408 -0.00666666666666667
1805 409 -0.000161422588303611
1805 1805 0.00755720834454588
1805 1806 -1.6238374314173e-09
1806 409 -0.000161424904072301
1806 1805 -1.11631510700419e-11
1806 1806 0.00822716472424545
1807 1807 0.00822711943021554
1807 1808 -7.77761013879667e-12
1808 409 -0.00666666666666667
1808 1807 -2.2201784561576e-10
1808 1808 0.00819196920656371
1809 409 -0.00666666666666667
1809 1809 0.00917235355722252
1809 1810 -0.000620672923579347
1810 1809 -0.000661205828628974
1810 1810 0.00926095692540445
1811 407 -0.00666666666666667
1811 411 -0.00016142331989136
1811 1811 0.00755722230561571
1811 1812 -6.01754536458248e-10
1812 411 -0.000161424172484552
1812 1811 -4.07434722062597e-12
1812 1812 0.00822718170485292
1813 373 -0.000435006978817776
1813 1813 0.00921717884367924
1813 1814 -0.00062314453620765
1814 373 -0.000435093216238015
1814 411 -0.00666666666666667
1814 1813 -0.000671598994291642
1814 1814 0.00926616805245615
1815 411 -0.00666666666666667
1815 412 -0.00043509318413876
1815 1815 0.00926772984879662
1815 1816 -0.000673028756927541
1816 412 -0.000435007004727823
1816 1815 -0.000624637266544077
1816 1816 0.00921880428832917
1817 414 -0.00666666666666667
1817 415 -0.000161423305282163
1817 1817 0.00755721768483238
1817 1818 -6.22042930544207e-10
1818 415 -0.000161424187093749
1818 1817 -4.21520958094493e-12
1818 1818 0.00822717716750568
1819 416 -0.00666666666666667
1819 417 -0.000434981761685146
1819 1819 0.00921657978568275
1819 1820 -0.000622843930781789
1819 1822 0.0
1820 417 -0.000435119511480767
1820 1819 -0.000671461221312616
1820 1820 0.0092658137032185
1821 415 -0.00666666666666667
1821 417 0.0
1821 418 -0.000434980125799633
1821 1821 0.00921598912055173
1821 1822 -0.00062280687530364
1822 416 -0.00666666666666667
1822 417 0.0
1822 418 -0.000435121215670877
1822 1819 0.0
1822 1821 -0.000671353905916793
1822 1822 0.00926516708273138
1823 373 -0.000435023227600191
1823 419 -0.00666666666666667
1823 1823 0.00921694193442373
1823 1824 -0.000622869755363486
1824 373 -0.000435076271502718
1824 1823 -0.000671550566383684
1824 1824 0.00926586026640359
1825 417 -0.00666666666666667
1825 420 -0.000161423317331866
1825 1825 0.00755722454624959
1825 1826 -6.05475143914788e-10
1826 420 -0.000161424175044046
1826 1825 -4.09902564328031e-12
1826 1826 0.00822718468701886
1827 412 -0.000435044582892759
1827 1827 0.00921879226944885
1827 1828 -0.00062440390789917
1828 412 -0.000435054001407353
1828 420 -0.00666666666666667
1828 1827 -0.000673030814417662
1828 1828 0.00926747756344729
1829 419 -0.000161423746696743
1829 420 -0.00666666666666667
1829 1829 0.00822722510694913
1829 1830 -4.03602349458584e-10
1830 419 -0.000161423745679169
1830 1829 -4.05099938099923e-10
1830 1830 0.00822717730152964
1831 412 -0.000435082620665604
1831 422 -0.00666666666666667
1831 1831 0.00926766299189552
1831 1832 -0.000673029869981998
1832 412 -0.000435017135654767
1832 1831 -0.000624575498879248
1832 1832 0.00921880276298028
1833 418 -0.00666666666666667
1833 423 -0.000161423313722635
1833 1833 0.0075572179338179
1833 1834 -6.10216091166618e-10
1834 423 -0.000161424178653277
1834 1833 -4.13381786270218e-12
1834 1834 0.00822717734939633
1835 373 -0.000435080703092234
1835 1835 0.00926585635253173
1835 1836 -0.000671542372337881
1836 373 -0.000435018977896098
1836 423 -0.00666666666666667
1836 1835 -0.000622868044974362
1836 1836 0.00921690563981086
1837 422 -0.000161423744043055
1837 423 -0.00666666666666667
1837 1837 0.00822698086373703
1837 1838 -3.98742006637491e-10
1838 422 -0.000161423748332858
1838 1837 -3.95512544131406e-10
1838 1838 0.00822718605874552
1839 425 -0.00666666666666667
1839 1839 0.00920452787846718
1839 1840 -0.000622283241890151
1840 1839 -0.00066873121484251
1840 1840 0.00926452697312771
1841 1841 0.00822724025612022
1841 1842 -3.99370802774404e-12
1842 426 -0.00666666666666667
1842 1841 -5.8619318129278e-10
1842 1842 0.0075694469276834
1843 425 -0.000161423207454356
1843 426 -0.00666666666666667
1843 1843 0.00756941304335114
1843 1844 -7.6031771425214e-10
1844 425 -0.000161424284921556
1844 1843 -5.21957327686065e-12
1844 1844 0.00822719049518821
1845 412 -0.00666666666666667
1845 429 6.86273215429911e-06
1845 1845 0.00757141350179527
1845 1846 -0.000221684447280563
1846 429 -0.000694544154543291
1846 1845 -1.54261696442178e-05
1846 1846 0.00891605622167589
1847 427 -0.000114453213670021
1847 430 -0.00666666666666667
1847 1847 0.00791126088236421
1847 1848 -6.44747260841583e-05
1847 1850 0.0
1848 427 -0.000573228208718971
1848 1847 -5.68886536946596e-06
1848 1848 0.00878526676544225
1849 429 -0.00666666666666667
1849 431 -0.000330660242956904
1849 1849 0.00843932649296407
1849 1850 -0.000476904229282087
1850 427 0.0
1850 429 0.0
1850 430 -0.00666666666666667
1850 431 -0.000535635480866769
1850 1847 0.0
1850 1849 -0.000399753779534293
1850 1850 0.00874547695183781
1851 431 -0.00666666666666667
1851 432 -0.000161423276715633
1851 1851 0.00755351614246299
1851 1852 -6.61962042461271e-10
1852 432 -0.000161424215660279
1852 1851 -4.47630170821153e-12
1852 1852 0.00822717544552603
1853 1853 0.0092655178007588
1853 1854 -0.000670824267990036
1854 432 -0.00666666666666667
1854 1853 -0.000622722840857443
1854 1854 0.00921370888772457
1855 432 -0.00666666666666667
1855 434 -0.000434642414870016
1855 1855 0.00921154593499041
1855 1856 -0.000620572207908768
1856 434 -0.000435473406638132
1856 1855 -0.000668579923648182
1856 1856 0.0092632640697968
1857 434 -0.00666666666666667
1857 1857 0.00755816621971812
1857 1858 -6.10348502915667e-10
1858 1857 -4.11326358485724e-12
1858 1858 0.00822725905587248
1859 426 -0.000323838542624367
1859 427 -0.00666666666666667
1859 1859 0.00865106149194994
1859 1860 -0.000557606090580912
1860 426 -0.000544927348767804
1860 1859 -0.00047260939280231
1860 1860 0.00917391269482082
1861 435 -0.00666666666666667
1861 436 3.97187181120991e-05
1861 1861 0.0075848805394873
1861 1862 -0.000271305613723867
1862 436 -0.000727400140501091
1862 1861 -2.77295971224946e-05
1862 1862 0.0089528944674002
1863 437 -0.00666666666666667
1863 438 -0.000435443459120569
1863 1863 0.00927048838466438
1863 1864 -0.000673638210139793
1863 1866 0.0
1864 438 -0.00043467102643833
1864 1863 -0.000627189812839502
1864 1864 0.00921926445312559
1865 436 -0.00666666666666667
1865 439 -0.000111659736914792
1865 1865 0.00770469512965636
1865 1866 -6.70698858845584e-05
1866 436 0.0
1866 437 -0.00666666666666667
1866 438 0.0
1866 439 -0.000576021685474199
1866 442 0.0
1866 1863 0.0
1866 1865 -3.41376585662229e-06
1866 1866 0.00878401949557726
1867 439 -0.00666666666666667
1867 440 -0.000334801708387353
1867 1867 0.00868845408484302
1867 1868 -0.000561455560363952
1868 440 -0.000534674268837695
1868 1867 -0.000487445981816213
1868 1868 0.00917876824764385
1869 1869 0.00822724019224601
1869 1870 -3.99393156536155e-12
1870 440 -0.00666666666666667
1870 1869 -5.86235995361395e-10
1870 1870 0.00756942275977688
1871 440 -0.00666666666666667
1871 1871 0.00756938783851884
1871 1872 -5.82276435921294e-10
1872 1871 -3.98490198193409e-12
1872 1872 0.00822717710481314
1873 438 -0.00666666666666667
1873 442 -0.0001614233089555
1873 1873 0.00755638842160884
1873 1874 -6.16892111647493e-10
1874 442 -0.000161424183420413
1874 1873 -4.17671676259941e-12
1874 1874 0.00822717774708077
1875 404 -0.000435127306548503
1875 1875 0.00926581925277366
1875 1876 -0.000671460680594175
1876 404 -0.000434974286158535
1876 442 -0.00666666666666667
1876 1875 -0.000622854391016699
1876 1876 0.0092165280190183
1877 442 -0.00666666666666667
1877 443 -0.000161423741996619
1877 1877 0.00822670097400921
1877 1878 -3.16769467002114e-10
1878 443 -0.000161423750379293
1878 1877 -3.10328437504518e-10
1878 1878 0.00822720900471032
1879 445 -0.00666666666666667
1879 446 -0.000435014948460667
1879 1879 0.00921687614266928
1879 1880 -0.000622872183625812
1880 446 -0.000435084904947665
1880 1879 -0.000671540506442383
1880 1880 0.00926585769785132
1881 447 -0.00666666666666667
1881 448 -0.000161423360221235
1881 1881 0.0075912130144891
1881 1882 -5.45926699323485e-10
1881 1884 0.0
1882 448 -0.000161424132154678
1882 1881 -3.81743951397943e-12
1882 1882 0.00822717722734729
1883 446 -0.00666666666666667
1883 449 -0.000161423118749632
1883 1883 0.0075572178184669
1883 1884 -6.95180386014204e-10
1884 446 0.0
1884 447 -0.00666666666666667
1884 448 0.0
1884 449 -0.00016142437362628
1884 451 0.0
1884 1881 0.0
1884 1883 -1.25531050075484e-11
1884 1884 0.00759121369168154
1885 404 -0.000435023129650981
1885 450 -0.00666666666666667
1885 1885 0.00921694463459229
1885 1886 -0.000622874016968664
1886 404 -0.000435076373631458
1886 1885 -0.000671554769008383
1886 1886 0.00926586380297488
1887 448 -0.00666666666666667
1887 451 -0.000435024403864371
1887 1887 0.0092168196255299
1887 1888 -0.000622730755410115
1888 451 -0.000435075045265772
1888 1887 -0.000671408260658943
1888 1888 0.00926572389917783
1889 443 -0.000161424083526681
1889 1889 0.00822720916387005
1889 1890 -3.21765105888902e-12
1890 443 -0.000161423408849231
1890 451 -0.00666666666666667
1890 1889 -4.77817077089684e-10
1890 1890 0.00755728112204505
1891 450 -0.000161423314131589
1891 451 -0.00666666666666667
1891 1891 0.00755727880376913
1891 1892 -6.09640565546088e-10
1892 450 -0.000161424178244323
1892 1891 -4.13009842789627e-12
1892 1892 0.0082271772591855
1893 443 -0.000161423408822156
1893 453 -0.00666666666666667
1893 1893 0.00755725864235687
1893 1894 -4.77854634654902e-10
1894 443 -0.000161424083553757
1894 1893 -3.217847688239e-12
1894 1894 0.00822720916390745
1895 449 -0.00666666666666667
1895 454 -0.000161423315795969
1895 1895 0.00755721772719453
1895 1896 -6.07300598025875e-10
1896 454 -0.000161424176579943
1896 1895 -4.11382630968499e-12
1896 1896 0.00822717716454718
1897 404 -0.000435052776118325
1897 1897 0.00926588448108721
1897 1898 -0.000671598373882454
1898 404 -0.000435045758390568
1898 454 -0.00666666666666667
1898 1897 -0.000622883111379359
1898 1898 0.0092171377891875
1899 453 -0.000435045758287676
1899 454 -0.00666666666666667
1899 1899 0.00921705200694797
1899 1900 -0.000622795092030724
1900 453 -0.000435052776259061
1900 1899 -0.000671504927255521
1900 1900 0.00926579461935502
1901 456 -0.00666666666666667
1901 1901 0.00755741246850972
1901 1902 -6.06515170660811e-10
1902 1901 -4.10910644191073e-12
1902 1902 0.00822717712895316
1903 1903 0.00822711877443554
1903 1904 -7.7416982592785e-12
1904 457 -0.00666666666666667
1904 1903 -2.22069534616361e-10
1904 1904 0.00819168186428156
1905 456 -0.000429527301021727
1905 457 -0.00666666666666667
1905 1905 0.00917151071499615
1905 1906 -0.000620192760036731
1906 456 -0.000440793399609728
1906 1905 -0.000660635211889125
1906 1906 0.00926043761627064
1907 443 -0.00666666666666667
1907 460 -0.000436537889268051
1907 1907 0.00924572083824643
1907 1908 -0.000641341546899128
1908 460 -0.000433619959227106
1908 1907 -0.000602697496588707
1908 1908 0.00919049825465466
1909 458 -0.000372135294409654
1909 461 -0.00666666666666667
1909 1909 0.00884119030057016
1909 1910 -0.000597865637200631
1909 1912 0.0
1910 458 -0.000498733734440173
1910 1909 -0.000565196723638367
1910 1910 0.00921780465508625
1911 460 -0.00666666666666667
1911 462 3.7815866324848e-05
1911 1911 0.00761083385223152
1911 1912 -0.00026982725011716
1912 458 0.0
1912 460 0.0
1912 461 -0.00666666666666667
1912 462 -0.00072549728871384
1912 1909 0.0
1912 1911 -4.1635055925718e-05
1912 1912 0.00866009133064085
1913 462 -0.00666666666666667
1913 463 -9.81956616589569e-05
1913 1913 0.00760092333284733
1913 1914 -8.38256764278111e-05
1914 463 -0.000589485760730035
1914 1913 -3.20930747823896e-06
1914 1914 0.00879776791477052
1915 1915 0.00822717682684741
1915 1916 -3.4930142795809e-12
1916 463 -0.00666666666666667
1916 1915 -3.0318728419964e-10
1916 1916 0.00790044609725218
1917 463 -0.00666666666666667
1917 465 -0.000333702076879595
1917 1917 0.00871084859569854
1917 1918 -0.00058808506089707
1918 465 -0.000536013661829747
1918 1917 -0.000512295472619773
1918 1918 0.00920289209739394
1919 465 -0.00666666666666667
1919 1919 0.00755933306799181
1919 1920 -6.07789044544431e-10
1920 1919 -4.10021688445045e-12
1920 1920 0.00822725774217296
1921 457 -0.000161422576319042
1921 458 -0.00666666666666667
1921 1921 0.00755666327735463
1921 1922 -1.64049626541978e-09
1922 457 -0.00016142491605687
1922 1921 -1.12741278002712e-11
1922 1922 0.00822716577112805
1923 466 -0.00666666666666667
1923 467 3.8224449528811e-05
1923 1923 0.00758386230747793
1923 1924 -0.000268798452226511
1924 467 -0.000725905871917802
1924 1923 -2.68846850272864e-05
1924 1924 0.00895121067622119
1925 468 -0.00666666666666667
1925 469 -0.000435307159704156
1925 1925 0.00926957338892927
1925 1926 -0.000673610961683688
1925 1928 0.0
1926 469 -0.000434801765636922
1926 1925 -0.000626355975132892
1926 1926 0.0092191903305174
1927 467 -0.00666666666666667
1927 470 -0.000110334788320004
1927 1927 0.00770842507081398
1927 1928 -6.85200481248619e-05
1928 467 0.0
1928 468 -0.00666666666666667
1928 469 0.0
1928 470 -0.000577346634068988
1928 473 0.0
1928 1925 0.0
1928 1927 -3.52838184825081e-06
1928 1928 0.00878522933538209
1929 470 -0.00666666666666667
1929 471 -0.00033301006714742
1929 1929 0.00868371047881797
1929 1930 -0.00056240817200813
1930 471 -0.000536378952719955
1930 1929 -0.000486532578576921
1930 1930 0.00917930422133162
1931 1931 0.00822717710596379
1931 1932 -3.99067558641348e-12
1932 471 -0.00666666666666667
1932 1931 -5.83431679178089e-10
1932 1932 0.00756879025163891
1933 471 -0.00666666666666667
1933 1933 0.00756882506046351
1933 1934 -5.87373439708311e-10
1934 1933 -3.99965820178692e-12
1934 1934 0.00822723979745249
1935 469 -0.00666666666666667
1935 473 -0.000161423317205601
1935 1935 0.00755640315367181
1935 1936 -6.05894425669847e-10
1936 473 -0.000161424175170311
1936 1935 -4.09724983315023e-12
1936 1936 0.00822719082319614
1937 435 -0.000435039282000799
1937 1937 0.00921780363530168
1937 1938 -0.000623330396350863
1938 435 -0.00043505953014083
1938 473 -0.00666666666666667
1938 1937 -0.000671765264155257
1938 1938 0.00926636396497985
1939 473 -0.00666666666666667
1939 474 -0.000161423747268413
1939 1939 0.0082272766546376
1939 1940 -4.2325285888449e-10
1940 474 -0.000161423745107499
1940 1939 -4.26431688727269e-10
1940 1940 0.00822718001752816
1941 476 -0.00666666666666667
1941 477 -0.00043501502580177
1941 1941 0.00921687628114546
1941 1942 -0.000622871599674078
1942 477 -0.000435084824299274
1942 1941 -0.000671540025560728
1942 1942 0.00926585723223368
1943 478 -0.00666666666666667
1943 479 -0.000161423359671855
1943 1943 0.00759121355987754
1943 1944 -5.46697495368835e-10
1943 1946 0.0
1944 479 -0.000161424132704058
1944 1943 -3.82292666777457e-12
1944 1944 0.00822717719106172
1945 477 -0.00666666666666667
1945 479 0.0
1945 480 -0.000161423121023112
1945 1945 0.00755721813537886
1945 1946 -6.92662263886115e-10
1946 478 -0.00666666666666667
1946 479 0.0
1946 480 -0.0001614243713528
1946 1943 0.0
1946 1945 -1.25075381051565e-11
1946 1946 0.00759121431463459
1947 435 -0.000435183177514903
1947 481 -0.00666666666666667
1947 1947 0.00926716255638974
1947 1948 -0.000671759479502791
1948 435 -0.000434920713595512
1948 1947 -0.000624065278105387
1948 1948 0.00921784374777363
1949 479 -0.00666666666666667
1949 482 -0.000435016604539719
1949 1949 0.00921689077912838
1949 1950 -0.000622869631331658
1950 482 -0.000435083178015839
1950 1949 -0.000671540798041408
1950 1950 0.00926586003647437
1951 474 -0.000161424199494236
1951 1951 0.00822718023129201
1951 1952 -4.33481102637179e-12
1952 474 -0.000161423292881676
1952 482 -0.00666666666666667
1952 1951 -6.39569061694972e-10
1952 1952 0.00755721907361002
1953 481 -0.000161423327915938
1953 482 -0.00666666666666667
1953 1953 0.00755722007835429
1953 1954 -5.91014713275667e-10
1954 481 -0.000161424164459974
1954 1953 -3.99695343689711e-12
1954 1954 0.00822719388300061
1955 474 -0.000161423292890867
1955 484 -0.00666666666666667
1955 1955 0.00755722473679793
1955 1956 -6.39556359277955e-10
1956 474 -0.000161424199485045
1956 1955 -4.33474416210013e-12
1956 1956 0.00822718023127935
1957 480 -0.00666666666666667
1957 485 -0.000161423327064931
1957 1957 0.00755722761558702
1957 1958 -5.9197212752516e-10
1958 485 -0.000161424165310981
1958 1957 -4.00519574062733e-12
1958 1958 0.00822718830313988
1959 435 -0.000434923578188304
1959 1959 0.0092178406793035
1959 1960 -0.000624046237027198
1960 435 -0.000435180190251448
1960 485 -0.00666666666666667
1960 1959 -0.000671758935795495
1960 1960 0.00926714180760297
1961 484 -0.000435180234489963
1961 485 -0.00666666666666667
1961 1961 0.00926672070407219
1961 1962 -0.000671584693353717
1962 484 -0.000434923532533521
1962 1961 -0.000623654480728591
1962 1962 0.00921719987714083
1963 487 -0.00666666666666667
1963 1963 0.00755944258238581
1963 1964 -6.07550069673094e-10
1964 1963 -4.09900186657922e-12
1964 1964 0.00822725761878753
1965 1965 0.00822717683107231
1965 1966 -3.46590495801865e-12
1966 488 -0.00666666666666667
1966 1965 -3.07429328465474e-10
1966 1966 0.00788944074290687
1967 487 -0.000327328582483526
1967 488 -0.00666666666666667
1967 1967 0.00868864830866256
1967 1968 -0.000585683665883424
1968 487 -0.000542038180279041
1968 1967 -0.000503334330728072
1968 1968 0.00919951404153332
1969 474 -0.00666666666666667
1969 491 -0.000434756036956663
1969 1969 0.00922412114032335
1969 1970 -0.000632218355554151
1970 491 -0.000435354579774434
1970 1969 -0.000680891393674206
1970 1970 0.00927546870226302
1971 489 1.96968234580236e-05
1971 492 -0.00666666666666667
1971 1971 0.00771427722386641
1971 1972 -0.000264816258060028
1971 1974 0.0
1972 489 -0.000707378245847015
1972 1971 -4.77633227286587e-05
1972 1972 0.00893589130313274
1973 491 -0.00666666666666667
1973 493 -6.46690982568612e-05
1973 1973 0.00756010678634908
1973 1974 -0.000112888567375701
1974 489 0.0
1974 491 0.0
1974 492 -0.00666666666666667
1974 493 -0.00062301232413213
1974 1971 0.0
1974 1973 -9.85505930025392e-06
1974 1974 0.00818271007019684
1974 3953 0.0
1975 493 -0.00666666666666667
1975 494 -0.00016142266114947
1975 1975 0.00755933922022228
1975 1976 -1.52245985024684e-09
1976 494 -0.000161424831226442
1976 1975 -1.04753666208369e-11
1976 1976 0.00822717141733115
1977 1977 0.00822711899107519
1977 1978 -8.03318982792332e-12
1978 494 -0.00666666666666667
1978 1977 -2.21645138348998e-10
1978 1978 0.00819386807586617
1979 494 -0.00666666666666667
1979 496 -0.000429884571295451
1979 1979 0.00917430862025363
1979 1980 -0.000620322135837134
1980 496 -0.000440422628401467
1980 1979 -0.000661288984210802
1980 1980 0.00926073953967262
1981 496 -0.00666666666666667
1981 1981 0.00755741928801698
1981 1982 -6.06500685137882e-10
1982 1981 -4.10903028639138e-12
1982 1982 0.00822717712893873
1983 488 -9.4602411876253e-05
1983 489 -0.00666666666666667
1983 1983 0.00762801683545901
1983 1984 -8.83337008316911e-05
1984 488 -0.000593079010512739
1984 1983 -3.69132323199305e-06
1984 1984 0.00880271404367009
1985 497 -0.00666666666666667
1985 498 -0.000435014938579205
1985 1985 0.00921687610102164
1985 1986 -0.000622872195907223
1986 498 -0.000435084915251974
1986 1985 -0.000671540507590834
1986 1986 0.00926585773544528
1987 499 -0.00666666666666667
1987 500 -0.000435050846412011
1987 1987 0.00926588177948937
1987 1988 -0.000671587306492918
1987 1990 0.0
1988 500 -0.000435047608857992
1988 1987 -0.000622878658890591
1988 1988 0.00921715304894545
1989 498 -0.00666666666666667
1989 501 -0.000161423313207681
1989 1989 0.00755721780085659
1989 1990 -6.11410160549999e-10
1990 498 0.0
1990 499 -0.00666666666666667
1990 500 0.0
1990 501 -0.000161424179168232
1990 504 0.0
1990 1987 0.0
1990 1989 -4.1387586091219e-12
1990 1990 0.00822718806718838
1991 501 -0.00666666666666667
1991 502 -0.000435014999741732
1991 1991 0.00921687692625696
1991 1992 -0.000622872560192916
1992 502 -0.000435084851470822
1992 1991 -0.000671540975224692
1992 1992 0.00926585810471102
1993 1993 0.00822717712936563
1993 1994 -4.11128311855797e-12
1994 502 -0.00666666666666667
1994 1993 -6.06929315017626e-10
1994 1994 0.00755721765969237
1995 502 -0.00666666666666667
1995 1995 0.00755721765969237
1995 1996 -6.06929314990521e-10
1996 1995 -4.11128306434786e-12
1996 1996 0.00822717712936563
1997 500 -0.00666666666666667
1997 504 -0.00016142332577821
1997 1997 0.00755722651317147
1997 1998 -5.93754382165261e-10
1998 504 -0.000161424166597703
1998 1997 -4.01759691005694e-12
1998 1998 0.0082271877464626
1999 466 -0.000434939601065898
1999 1999 0.00921808799379094
1999 2000 -0.000624215698660223
2000 466 -0.000435163477654635
2000 504 -0.00666666666666667
2000 1999 -0.0006720546427193
2000 2000 0.00926731300229176
2001 504 -0.00666666666666667
2001 505 -0.000435163526863418
2001 2001 0.00926661685822193
2001 2002 -0.000671590322333263
2002 505 -0.000434939554418942
2002 2001 -0.000623558994505916
2002 2002 0.00921719752068605
2003 507 -0.00666666666666667
2003 508 -0.000161423305416681
2003 2003 0.00755721777860633
2003 2004 -6.21858123915517e-10
2004 508 -0.000161424186959232
2004 2003 -4.21391246707966e-12
2004 2004 0.00822717725212622
2005 509 -0.00666666666666667
2005 510 -0.000434982526778276
2005 2005 0.00921659906098255
2005 2006 -0.000622858570800819
2005 2008 0.0
2006 510 -0.000435118713563233
2006 2005 -0.000671477447178317
2006 2006 0.00926582756926139
2007 508 -0.00666666666666667
2007 510 0.0
2007 511 -0.000434980912593392
2007 2007 0.00921598377863167
2007 2008 -0.00062278591439735
2008 509 -0.00666666666666667
2008 510 0.0
2008 511 -0.000435120395436144
2008 2005 0.0
2008 2007 -0.000671334364038544
2008 2008 0.0092651559881016
2009 466 -0.000435157861406834
2009 512 -0.00666666666666667
2009 2009 0.00926727820268467
2009 2010 -0.000672055614043405
2010 466 -0.000434944986847372
2010 2009 -0.000624183768120281
2010 2010 0.0092180883507825
2011 510 -0.00666666666666667
2011 513 -0.000161423313905323
2011 2011 0.00755721807683178
2011 2012 -6.09967620239068e-10
2012 513 -0.000161424178470589
2012 2011 -4.13205652975882e-12
2012 2012 0.00822717752452148
2013 505 -0.000435078552482021
2013 2013 0.0092658535274115
2013 2014 -0.000671540654928718
2014 505 -0.000435021040258217
2014 513 -0.00666666666666667
2014 2013 -0.000622863300988667
2014 2014 0.00921691864794477
2015 512 -0.000161423744222123
2015 513 -0.00666666666666667
2015 2015 0.00822700195448362
2015 2016 -3.92998923185469e-10
2016 512 -0.000161423748153789
2016 2015 -3.89924360631551e-10
2016 2016 0.00822719276781524
2017 505 -0.00043502700681773
2017 515 -0.00666666666666667
2017 2017 0.009216969619309
2017 2018 -0.000622865703361334
2018 505 -0.000435072330536212
2018 2017 -0.000671552161840081
2018 2018 0.00926585903533609
2019 511 -0.00666666666666667
2019 516 -0.000161423322217426
2019 2019 0.00755722786475404
2019 2020 -5.98848077831665e-10
2020 516 -0.000161424170158486
2020 2019 -4.05192380789588e-12
2020 2020 0.0082271899728134
2021 466 -0.000434989471025225
2021 2021 0.0092180733588639
2021 2022 -0.000623908223929954
2022 466 -0.000435111473318402
2022 516 -0.00666666666666667
2022 2021 -0.000672057800833721
2022 2022 0.00926697860106715
2023 515 -0.000161423750872133
2023 516 -0.00666666666666667
2023 2023 0.00822761164777149
2023 2024 -4.03612204340234e-10
2024 515 -0.000161423741503779
2024 2023 -4.1737582871823e-10
2024 2024 0.00822717763383406
2025 518 -0.00666666666666667
2025 2025 0.00755721765245576
2025 2026 -6.06929330387249e-10
2026 2025 -4.11128322661896e-12
2026 2026 0.00822717712936565
2027 2027 0.00822717692676105
2027 2028 -3.98504312842814e-10
2028 519 -0.00666666666666667
2028 2027 -4.01916206499039e-10
2028 2028 0.0082269517841433
2029 518 -0.000435016115295253
2029 519 -0.00666666666666667
2029 2029 0.00921688646246056
2029 2030 -0.000622873025744601
2030 518 -0.000435083688178647
2030 2029 -0.000671543142540195
2030 2030 0.00926585914161286
2031 505 -0.00666666666666667
2031 522 -0.000161423305333357
2031 2031 0.00755722246650229
2031 2032 -6.21972777019227e-10
2032 522 -0.000161424187042555
2032 2031 -4.21473369469324e-12
2032 2032 0.00822717720033716
2033 520 -0.000434980856857106
2033 523 -0.00666666666666667
2033 2033 0.00921658561270818
2033 2034 -0.000622858805909677
2033 2036 0.0
2034 520 -0.000435120454886335
2034 2033 -0.000671475161541192
2034 2034 0.00926582686247801
2035 522 -0.00666666666666667
2035 524 -0.000434981527116149
2035 2035 0.00921599362553297
2035 2036 -0.000622807256895069
2036 520 0.0
2036 522 0.0
2036 523 -0.00666666666666667
2036 524 -0.000435119754440041
2036 2033 0.0
2036 2035 -0.000671355526523754
2036 2036 0.00926516002397628
2037 524 -0.00666666666666667
2037 525 -0.000161423313472066
2037 2037 0.0075572177074576
2037 2038 -6.10558026872576e-10
2038 525 -0.000161424178903846
2038 2037 -4.13623360119687e-12
2038 2038 0.00822717713332134
2039 2039 0.00822717692676102
2039 2040 -3.98504881043304e-10
2040 525 -0.00666666666666667
2040 2039 -4.0191617420415e-10
2040 2040 0.00822695182391632
2041 525 -0.00666666666666667
2041 527 -0.000435016121073636
2041 2041 0.00921688651148404
2041 2042 -0.000622873027716197
2042 527 -0.000435083682152984
2042 2041 -0.000671543153316059
2042 2042 0.00926585914660036
2043 527 -0.00666666666666667
2043 2043 0.00755721765260308
2043 2044 -6.06929330073791e-10
2044 2043 -4.11128317076067e-12
2044 2044 0.00822717712936565
2045 519 -0.000161423313471532
2045 520 -0.00666666666666667
2045 2045 0.00755721767183213
2045 2046 -6.10558775336229e-10
2046 519 -0.00016142417890438
2046 2045 -4.13623865254959e-12
2046 2046 0.00822717713310498
2047 528 -0.00666666666666667
2047 529 -0.000435018968638476
2047 2047 0.00921691025951687
2047 2048 -0.000622873496063733
2048 529 -0.000435080712727502
2048 2047 -0.000671547950168372
2048 2048 0.00926586118314658
2049 530 -0.00666666666666667
2049 531 -0.000435049191356535
2049 2049 0.00921716879431323
2049 2050 -0.000622886307249137
2049 2052 0.0
2050 531 -0.00043504919613926
2050 2049 -0.000671606868811569
2050 2050 0.00926588937729599
2051 529 -0.00666666666666667
2051 532 -0.00016142331338425
2051 2051 0.00755721793600595
2051 2052 -6.10681172826885e-10
2052 529 0.0
2052 530 -0.00666666666666667
2052 531 0.0
2052 532 -0.000161424178991662
2052 2049 0.0
2052 2051 -4.13708123041369e-12
2052 2052 0.008227177119233
2053 532 -0.00666666666666667
2053 533 -0.000435014991950717
2053 2053 0.00921687685990915
2053 2054 -0.000622872557534398
2054 533 -0.000435084859595237
2054 2053 -0.000671540960664755
2054 2054 0.0092658580977051
2055 2055 0.00822717712936563
2055 2056 -4.11128312059151e-12
2056 533 -0.00666666666666667
2056 2055 -6.06929315458586e-10
2056 2056 0.00755721765951059
2057 533 -0.00666666666666667
2057 2057 0.00755721765951059
2057 2058 -6.06929315377271e-10
2058 2057 -4.11128314769656e-12
2058 2058 0.00822717712936563
2059 531 -0.00666666666666667
2059 535 -0.000161423313471494
2059 2059 0.00755721765815363
2059 2060 -6.10558828302726e-10
2060 535 -0.000161424178904419
2060 2059 -4.1362388885134e-12
2060 2060 0.00822717713301762
2061 497 -0.000161423748574759
2061 2061 0.00822717692977797
2061 2062 -4.00958477955194e-10
2062 497 -0.000161423743801153
2062 535 -0.00666666666666667
2062 2061 -4.04391259451851e-10
2062 2062 0.00822695178639429
2063 535 -0.00666666666666667
2063 536 -0.000435016115212415
2063 2063 0.00921688646176349
2063 2064 -0.000622873025744216
2064 536 -0.000435083688265029
2064 2063 -0.000671543142412071
2064 2064 0.00926585914154555
2065 538 -0.00666666666666667
2065 539 -0.000435014924421642
2065 2065 0.00921687629980787
2065 2066 -0.000622872547218614
2066 539 -0.000435084930014026
2066 2065 -0.000671540848012875
2066 2066 0.00926585805277396
2067 540 -0.00666666666666667
2067 541 -0.000435049188240248
2067 2067 0.00921716878050549
2067 2068 -0.000622886319709904
2067 2070 0.0
2068 541 -0.000435049199389004
2068 2067 -0.000671606876994401
2068 2068 0.00926588938772177
2069 539 -0.00666666666666667
2069 542 -0.000161423313378629
2069 2069 0.00755721765241206
2069 2070 -6.10689035956022e-10
2070 539 0.0
2070 540 -0.00666666666666667
2070 541 0.0
2070 542 -0.000161424178997283
2070 2067 0.0
2070 2069 -4.13713446085067e-12
2070 2070 0.00822717709595602
2071 497 -0.000161423313379198
2071 543 -0.00666666666666667
2071 2071 0.00755721765294025
2071 2072 -6.10688254193983e-10
2072 497 -0.000161424178996714
2072 2071 -4.13712892374229e-12
2072 2072 0.00822717713365142
2073 541 -0.00666666666666667
2073 544 -0.000161423315571435
2073 2073 0.007557217652383
2073 2074 -6.07614049978666e-10
2074 544 -0.000161424176804478
2074 2073 -4.1159909685873e-12
2074 2074 0.00822717713004912
2075 536 -0.000435055716856611
2075 2075 0.00926588367152924
2075 2076 -0.000671594832025932
2076 536 -0.000435042938405564
2076 544 -0.00666666666666667
2076 2075 -0.000622883807494963
2076 2076 0.00921711541901995
2077 543 -0.000435042938405561
2077 544 -0.00666666666666667
2077 2077 0.00921711541808561
2077 2078 -0.000622883806457666
2078 543 -0.000435055716856614
2078 2077 -0.000671594830956835
2078 2078 0.00926588367056312
2079 536 -0.000435014924529298
2079 546 -0.00666666666666667
2079 2079 0.00921687630059584
2079 2080 -0.00062287254712535
2080 536 -0.000435084929901764
2080 2079 -0.000671540848078643
2080 2080 0.00926585805273653
2081 542 -0.00666666666666667
2081 547 -0.000435014924516909
2081 2081 0.00921687628821601
2081 2082 -0.000622872534696778
2082 547 -0.000435084929914729
2082 2081 -0.000671540835117598
2082 2082 0.00926585803993785
2083 497 -0.000161424178996707
2083 2083 0.00822717713365141
2083 2084 -4.13712878804996e-12
2084 497 -0.000161423313379205
2084 547 -0.00666666666666667
2084 2083 -6.10688243907033e-10
2084 2084 0.00755721765777051
2085 546 -0.000161423313378038
2085 547 -0.00666666666666667
2085 2085 0.00755721765773097
2085 2086 -6.10689880891929e-10
2086 546 -0.000161424178997874
2086 2085 -4.13714007422678e-12
2086 2086 0.00822717713311491
2087 549 -0.00666666666666667
2087 2087 0.00755721765237516
2087 2088 -6.06929330558723e-10
2088 2087 -4.11128320041551e-12
2088 2088 0.00822717712936565
2089 2089 0.00822717692676107
2089 2090 -3.98503993603989e-10
2090 550 -0.00666666666666667
2090 2089 -4.01916224778809e-10
2090 2090 0.00822695176179715
2091 549 -0.000435016112049646
2091 550 -0.00666666666666667
2091 2091 0.00921688643492012
2091 2092 -0.00062287302463188
2092 549 -0.000435083691563147
2092 2091 -0.00067154313648211
2092 2092 0.00926585913880642
2093 536 -0.00666666666666667
2093 553 -0.000161423305232395
2093 2093 0.00755721765255115
2093 2094 -6.22111784951491e-10
2094 553 -0.000161424187143517
2094 2093 -4.21568943808865e-12
2094 2094 0.0082271771444873
2095 551 -0.000434980660277107
2095 554 -0.00666666666666667
2095 2095 0.00921658397566324
2095 2096 -0.00062285877350282
2095 2098 0.0
2096 551 -0.000435120659871896
2096 2095 -0.000671474830577319
2096 2096 0.00926582672350118
2097 553 -0.00666666666666667
2097 555 -0.000434980641232482
2097 2097 0.00921598447237032
2097 2098 -0.000622806883370279
2098 551 0.0
2098 553 0.0
2098 554 -0.00666666666666667
2098 555 -0.00043512067817965
2098 2095 0.0
2098 2097 -0.000671353608087835
2098 2098 0.00926515741219142
2099 555 -0.00666666666666667
2099 556 -0.000161423313471232
2099 2099 0.00755721765240889
2099 2100 -6.10559194915996e-10
2100 556 -0.00016142417890468
2100 2099 -4.13624141678407e-12
2100 2100 0.00822717713298094
2101 2101 0.00822717692676107
2101 2102 -3.98503993605691e-10
2102 556 -0.00666666666666667
2102 2101 -4.01916224778717e-10
2102 2102 0.00822695176179727
2103 556 -0.00666666666666667
2103 558 -0.000435016112049663
2103 2103 0.00921688643492027
2103 2104 -0.000622873024631886
2104 558 -0.000435083691563128
2104 2103 -0.000671543136482143
2104 2104 0.00926585913880643
2105 558 -0.00666666666666667
2105 2105 0.00755721765237516
2105 2106 -6.06929330558722e-10
2106 2105 -4.11128320041551e-12
2106 2106 0.00822717712936565
2107 550 -0.000161423313471232
2107 551 -0.00666666666666667
2107 2107 0.00755721765240876
2107 2108 -6.10559194918309e-10
2108 550 -0.00016142417890468
2108 2107 -4.13624138969447e-12
2108 2108 0.00822717713298094
2109 559 -0.00666666666666667
2109 560 -0.000161423305349811
2109 2109 0.00755721745014789
2109 2110 -6.21947116183705e-10
2110 560 -0.000161424187026102
2110 2109 -4.21455659253393e-12
2110 2110 0.0082271770699716
2111 561 -0.00666666666666667
2111 562 -0.000434982884474892
2111 2111 0.00921659235812519
2111 2112 -0.000622847839674435
2111 2114 0.0
2112 562 -0.00043511834065032
2112 2111 -0.000671466933340958
2112 2112 0.00926581781614685
2113 560 -0.00666666666666667
2113 563 -0.00043497997975325
2113 2113 0.00921601550080637
2113 2114 -0.000622828624049149
2114 560 0.0
2114 561 -0.00666666666666667
2114 562 0.0
2114 563 -0.000435121367820746
2114 566 0.0
2114 2111 0.0
2114 2113 -0.000671377077483803
2114 2114 0.00926519622533869
2115 563 -0.00666666666666667
2115 564 -0.000161422588303417
2115 2115 0.00755720833616017
2115 2116 -1.62383770179479e-09
2116 564 -0.000161424904072495
2116 2115 -1.11631527935514e-11
2116 2116 0.00822716472435721
2117 2117 0.00822711943027826
2117 2118 -7.77760943851022e-12
2118 564 -0.00666666666666667
2118 2117 -2.22017847415368e-10
2118 2118 0.00819196920090728
2119 564 -0.00666666666666667
2119 2119 0.00917235354987985
2119 2120 -0.000620672923200048
2120 2119 -0.000661205826876668
2120 2120 0.00926095692459278
2121 562 -0.00666666666666667
2121 566 -0.000161423316150032
2121 2121 0.00755722298561667
2121 2122 -6.0705357385032e-10
2122 566 -0.00016142417622588
2122 2121 -4.1104189347145e-12
2122 2122 0.00822718286444302
2123 528 -0.000161423746615297
2123 2123 0.00822717730472606
2123 2124 -4.03282765837451e-10
2124 528 -0.000161423745760615
2124 566 -0.00666666666666667
2124 2123 -4.0390341608362e-10
2124 2124 0.00822713708288526
2125 566 -0.00666666666666667
2125 567 -0.000435041466166207
2125 2125 0.00921870444385485
2125 2126 -0.00062436376009722
2126 567 -0.000435057251216225
2126 2125 -0.00067299677606907
2126 2126 0.00926743532429377
2127 569 -0.00666666666666667
2127 570 -0.000435014955543718
2127 2127 0.00921687626274407
2127 2128 -0.000622872236309805
2128 570 -0.000435084897561345
2128 2127 -0.00067154057326178
2128 2128 0.00926585776729672
2129 571 -0.00666666666666667
2129 572 -0.000435050355484346
2129 2129 0.00926588407933099
2129 2130 -0.000671593403370661
2129 2132 0.0
2130 572 -0.000435048079623293
2130 2129 -0.000622880979701605
2130 2130 0.00921715753812692
2131 570 -0.00666666666666667
2131 572 0.0
2131 573 -0.000161423313341255
2131 2131 0.00755721779084046
2131 2132 -6.11079896253777e-10
2132 571 -0.00666666666666667
2132 572 0.0
2132 573 -0.000161424179034657
2132 2129 0.0
2132 2131 -4.13747795884771e-12
2132 2132 0.00822718482294398
2133 528 -0.000161423313748346
2133 574 -0.00666666666666667
2133 2133 0.00755722267180921
2133 2134 -6.10187187425962e-10
2134 528 -0.000161424178627566
2134 2133 -4.13358698004224e-12
2134 2134 0.00822717750858028
2135 572 -0.00666666666666667
2135 575 -0.000161423321565591
2135 2135 0.00755722364032399
2135 2136 -5.99472333441493e-10
2136 575 -0.000161424170810321
2136 2135 -4.05820744876873e-12
2136 2136 0.00822718324339584
2137 567 -0.000434987713518249
2137 2137 0.00921880734854766
2137 2138 -0.000624752427388953
2138 567 -0.000435113298977872
2138 575 -0.00666666666666667
2138 2137 -0.000673021763224572
2138 2138 0.00926785482617738
2139 574 -0.000435113345596286
2139 575 -0.00666666666666667
2139 2139 0.00926629223154663
2139 2140 -0.000671592121883009
2140 574 -0.000434987675900873
2140 2139 -0.000623259249505168
2140 2140 0.00921718022533243
2141 567 -0.00043508429144046
2141 577 -0.00666666666666667
2141 2141 0.00926766886039602
2141 2142 -0.000673023701802679
2142 567 -0.000435015533322463
2142 2141 -0.000624580707385012
2142 2142 0.00921879973034195
2143 573 -0.00666666666666667
2143 578 -0.000435015968986542
2143 2143 0.00921687745366214
2143 2144 -0.000622863794394842
2144 578 -0.000435083840783049
2144 2143 -0.000671533468502134
2144 2144 0.00926585102903257
2145 528 -0.000161424178629454
2145 2145 0.00822717750858288
2145 2146 -4.13360072924052e-12
2146 528 -0.000161423313746458
2146 578 -0.00666666666666667
2146 2145 -6.10189797184089e-10
2146 2146 0.00755722145179233
2147 577 -0.000161423319781588
2147 578 -0.00666666666666667
2147 2147 0.0075572220960374
2147 2148 -6.02110183541e-10
2148 577 -0.000161424172594324
2148 2147 -4.0753945349087e-12
2148 2148 0.00822718635496286
2149 580 -0.00666666666666667
2149 2149 0.00920452788146494
2149 2150 -0.000622283242035164
2150 2149 -0.000668731215529775
2150 2150 0.00926452697345471
2151 2151 0.00822724025612129
2151 2152 -3.99370800068333e-12
2152 581 -0.00666666666666667
2152 2151 -5.8619317577472e-10
2152 2152 0.00756944693050669
2153 580 -0.000161423207454397
2153 581 -0.00666666666666667
2153 2153 0.00756941304617414
2153 2154 -7.60317657384023e-10
2154 580 -0.000161424284921515
2154 2153 -5.2195729473246e-12
2154 2154 0.00822719049519187
2155 567 -0.00666666666666667
2155 584 6.86068254293192e-06
2155 2155 0.00757141579588468
2155 2156 -0.000221681707782894
2156 584 -0.000694542104931924
2156 2155 -1.5425869439229e-05
2156 2156 0.00891605396648051
2157 582 -0.000114453247275369
2157 585 -0.00666666666666667
2157 2157 0.00791126060525454
2157 2158 -6.4474675676056e-05
2157 2160 0.0
2158 582 -0.000573228175113623
2158 2157 -5.68885700258807e-06
2158 2158 0.0087852667078625
2159 584 -0.00666666666666667
2159 586 -0.000330661927924628
2159 2159 0.00843933027528508
2159 2160 -0.000476904595508028
2160 582 0.0
2160 584 0.0
2160 585 -0.00666666666666667
2160 586 -0.000535633960374463
2160 2157 0.0
2160 2159 -0.000399755487421509
2160 2160 0.00874547668628809
2161 586 -0.00666666666666667
2161 587 -0.000161423276716622
2161 2161 0.00755351620828405
2161 2162 -6.61960659410746e-10
2162 587 -0.00016142421565929
2162 2161 -4.47629245041502e-12
2162 2162 0.00822717544592908
2163 2163 0.00926551780966224
2163 2164 -0.00067082428663161
2164 587 -0.00666666666666667
2164 2163 -0.000622722844759921
2164 2164 0.00921370896996779
2165 587 -0.00666666666666667
2165 589 -0.000434642424564363
2165 2165 0.00921154601677884
2165 2166 -0.000620572211261187
2166 589 -0.000435473396530201
2166 2165 -0.000668579941724334
2166 2166 0.00926326407816085
2167 589 -0.00666666666666667
2167 2167 0.00755816621995536
2167 2168 -6.10348502411632e-10
2168 2167 -4.11326355512402e-12
2168 2168 0.00822725905587249
2169 581 -0.000323838600968767
2169 582 -0.00666666666666667
2169 2169 0.00865106167785428
2169 2170 -0.000557606102878733
2170 581 -0.000544927294428741
2170 2169 -0.000472609462967472
2170 2170 0.00917391271174718
2171 590 -0.00666666666666667
2171 591 -0.000402800893973209
2171 2171 0.0087452595271516
2171 2172 -0.000346464452179156
2172 591 -0.000467871394310761
2172 2171 -0.000345831822895716
2172 2172 0.00898436212884006
2173 592 -0.00666666666666667
2173 593 -0.000340826929960757
2173 2173 0.00874024567848459
2173 2174 -0.000594710599463256
2173 2176 0.0
2174 593 -0.000529259757575147
2174 2173 -0.000526325481552128
2174 2174 0.00921019356669105
2175 591 -0.00666666666666667
2175 594 -0.000246116167738165
2175 2175 0.008087451919499
2175 2176 -0.000295632059850581
2176 591 0.0
2176 592 -0.00666666666666667
2176 593 0.0
2176 594 -0.000598443392983164
2176 2173 0.0
2176 2175 -0.00017438955429227
2176 2176 0.00859314138531184
2177 594 -0.00666666666666667
2177 595 -0.000161422660701845
2177 2177 0.00755894482058338
2177 2178 -1.52686347573174e-09
2178 595 -0.000161424831674067
2178 2177 -1.0475673609063e-11
2178 2178 0.0082272124855428
2179 2179 0.00925936813557193
2179 2180 -0.000661330289554339
2180 595 -0.00666666666666667
2180 2179 -0.000620622041734691
2180 2180 0.00917272027027183
2181 595 -0.00666666666666667
2181 2181 0.00917272027027183
2181 2182 -0.000620622041734691
2182 2181 -0.000661330289554339
2182 2182 0.00925936813557193
2183 593 -0.00666666666666667
2183 597 -0.000161423318386659
2183 2183 0.00755772612433827
2183 2184 -6.0368159504367e-10
2184 597 -0.000161424173989254
2184 2183 -4.09070240552688e-12
2184 2184 0.00822717664154949
2185 559 -0.000435028541278858
2185 2185 0.00921717692320901
2185 2186 -0.000623016030658318
2186 559 -0.000435070730506436
2186 597 -0.00666666666666667
2186 2185 -0.000671606591937571
2186 2186 0.00926602914632314
2187 597 -0.00666666666666667
2187 598 -0.000435070730494954
2187 2187 0.00926603032447032
2187 2188 -0.000671607789864231
2188 598 -0.000435028541287398
2188 2187 -0.000623017161092738
2188 2188 0.00921717803397737
2189 600 -0.00666666666666667
2189 601 -0.000161423305232311
2189 2189 0.00755721765255309
2189 2190 -6.2211190384967e-10
2190 601 -0.000161424187143602
2190 2189 -4.21569022865129e-12
2190 2190 0.00822717714451166
2191 602 -0.00666666666666667
2191 603 -0.000434980659785321
2191 2191 0.00921658398188585
2191 2192 -0.000622858783402944
2191 2194 0.0
2192 603 -0.000435120660384639
2192 2191 -0.000671474840199063
2192 2192 0.00926582673394005
2193 601 -0.00666666666666667
2193 603 0.0
2193 604 -0.000434980640625952
2193 2193 0.00921598447096054
2193 2194 -0.00062280689045847
2194 602 -0.00666666666666667
2194 603 0.0
2194 604 -0.000435120678812036
2194 2191 0.0
2194 2193 -0.000671353614127903
2194 2194 0.00926515741526658
2195 559 -0.000435014782666575
2195 605 -0.00666666666666667
2195 2195 0.0092168754893781
2195 2196 -0.000622872964977058
2196 559 -0.000435085077833359
2196 2195 -0.000671541060679635
2196 2196 0.00926585833344845
2197 603 -0.00666666666666667
2197 606 -0.000161423313368981
2197 2197 0.00755721764798702
2197 2198 -6.10702580324129e-10
2198 606 -0.000161424179006931
2198 2197 -4.13722734407885e-12
2198 2198 0.00822717713158753
2199 598 -0.000435085047523666
2199 2199 0.00926585952661161
2199 2200 -0.000671542323723485
2200 598 -0.000435014811728347
2200 606 -0.00666666666666667
2200 2199 -0.000622874138897695
2200 2200 0.00921687685921448
2201 605 -0.000161423743707387
2201 606 -0.00666666666666667
2201 2201 0.00822694291289794
2201 2202 -4.04409911340958e-10
2202 605 -0.000161423748668525
2202 2201 -4.00842285147719e-10
2202 2202 0.00822717692852259
2203 598 -0.00043501473331439
2203 608 -0.00666666666666667
2203 2203 0.00921687619006437
2203 2204 -0.000622874107379276
2204 598 -0.000435085129293169
2204 2203 -0.000671542172631629
2204 2204 0.00926585945492749
2205 604 -0.00666666666666667
2205 609 -0.000161423313372717
2205 2205 0.0075572176490429
2205 2206 -6.10697341609479e-10
2206 609 -0.000161424179003195
2206 2205 -4.1371913226362e-12
2206 2206 0.00822717713218054
2207 559 -0.000435084998915685
2207 2207 0.00926585840260774
2207 2208 -0.000671541206497535
2208 559 -0.00043501485834572
2208 609 -0.00666666666666667
2208 2207 -0.000622872995394381
2208 2208 0.00921687613516897
2209 608 -0.000161423743710731
2209 609 -0.00666666666666667
2209 2209 0.00822694323093816
2209 2210 -4.04413311485434e-10
2210 608 -0.000161423748665182
2210 2209 -4.00850494105122e-10
2210 2210 0.00822717692781809
2211 611 -0.00666666666666667
2211 2211 0.00895231589357087
2211 2212 -0.000606288347917668
2212 2211 -0.000601006644778351
2212 2212 0.00923179444181664
2213 2213 0.00921580902911039
2213 2214 -0.000628092211209407
2214 612 -0.00666666666666667
2214 2213 -0.000671118539139059
2214 2214 0.0092716830925503
2215 611 -0.000161506286329311
2215 612 -0.00666666666666667
2215 2215 0.00823503972118425
2215 2216 -2.87656482013065e-07
2216 611 -0.000161341206046601
2216 2215 -5.10771931197153e-07
2216 2216 0.00822679160086089
2217 598 -0.00666666666666667
2217 615 -0.000161423303639284
2217 2217 0.00755721692802432
2217 2218 -6.24345265608089e-10
2218 615 -0.000161424188736629
2218 2217 -4.23105196131728e-12
2218 2218 0.00822717661914844
2219 613 -0.000434963057292216
2219 616 -0.00666666666666667
2219 2219 0.00921651153587085
2219 2220 -0.000622941361344091
2219 2222 0.0
2220 613 -0.000435139014560907
2220 2219 -0.000671532950972917
2220 2220 0.00926589065346502
2221 615 -0.00666666666666667
2221 617 -0.000434979171689486
2221 2221 0.00921594150620622
2221 2222 -0.000622929213193418
2222 613 0.0
2222 615 0.0
2222 616 -0.00666666666666667
2222 617 -0.000435122209070103
2222 2219 0.0
2222 2221 -0.000671460176695445
2222 2222 0.00926511191021491
2223 617 -0.00666666666666667
2223 618 -0.000161423349940155
2223 2223 0.00755715649690167
2223 2224 -5.59380649971563e-10
2224 618 -0.000161424142435757
2224 2223 -3.78464866461817e-12
2224 2224 0.00822711615636884
2225 2225 0.00921569960071171
2225 2226 -0.000624992484434852
2226 618 -0.00666666666666667
2226 2225 -0.000671199549931674
2226 2226 0.00926820615627817
2227 618 -0.00666666666666667
2227 620 -0.000161430149015849
2227 2227 0.00823042260002626
2227 2228 -6.92727617230331e-08
2228 620 -0.000161417343360063
2228 2227 -8.75293478015414e-08
2228 2228 0.00822728043872173
2229 620 -0.00666666666666667
2229 2229 0.00900314235025987
2229 2230 -0.000610140243511596
2230 2229 -0.000616359389511349
2230 2230 0.00923851413586815
2231 612 -0.000161423386153596
2231 613 -0.00666666666666667
2231 2231 0.00755717693475327
2231 2232 -5.08562477958249e-10
2232 612 -0.000161424106222316
2232 2231 -3.43592691293593e-12
2232 2232 0.00822712657547361
2233 621 -0.00666666666666667
2233 622 -0.000435014771024603
2233 2233 0.0092168800298003
2233 2234 -0.000622877507553345
2234 622 -0.000435085089957182
2234 2233 -0.000671545791530904
2234 2234 0.00926586316856804
2235 623 -0.00666666666666667
2235 624 -0.000161423348017174
2235 2235 0.007591204330965
2235 2236 -5.63072851826959e-10
2235 2238 0.0
2236 624 -0.000161424144358738
2236 2235 -3.93925786733449e-12
2236 2236 0.00822717559878124
2237 622 -0.00666666666666667
2237 624 0.0
2237 625 -0.000161423121269892
2237 2237 0.00755721552651015
2237 2238 -6.92387796644269e-10
2238 623 -0.00666666666666667
2238 624 0.0
2238 625 -0.00016142437110602
2238 2235 0.0
2238 2237 -1.25030561412552e-11
2238 2238 0.00759120514631323
2239 625 -0.00666666666666667
2239 626 -0.000161423139772803
2239 2239 0.00755721979757678
2239 2240 -8.53933169653901e-10
2240 626 -0.000161424352603109
2240 2239 -5.81369082613002e-12
2240 2240 0.00822717846337374
2241 2241 0.00926237298745191
2241 2242 -0.000667643955617555
2242 626 -0.00666666666666667
2242 2241 -0.000621979742880892
2242 2242 0.00919963617413948
2243 626 -0.00666666666666667
2243 2243 0.00920119114136109
2243 2244 -0.000622121226735743
2244 2243 -0.000667964673290032
2244 2244 0.00926416149733888
2245 624 -0.00666666666666667
2245 628 -0.000434855411650392
2245 2245 0.00921804320947047
2245 2246 -0.000625438906427755
2246 628 -0.00043525120253912
2246 2245 -0.000673963456108928
2246 2246 0.00926833740265235
2247 590 -0.000161480379356609
2247 2247 0.00822676745335871
2247 2248 -5.6390307358857e-10
2248 590 -0.000161367113019303
2248 628 -0.00666666666666667
2248 2247 -7.74836785822801e-08
2248 2248 0.00755607876483109
2249 628 -0.00666666666666667
2249 629 -0.000161423315838776
2249 2249 0.00755611424124089
2249 2250 -6.07895080715947e-10
2250 629 -0.000161424176537136
2250 2249 -4.10936949933792e-12
2250 2250 0.00822719290698345
2251 631 -0.00666666666666667
2251 632 -0.000161423304924141
2251 2251 0.00755721760719274
2251 2252 -6.22543990942232e-10
2251 4233 0.0
2252 632 -0.000161424187451771
2252 2251 -4.21866212845835e-12
2252 2252 0.00822717713446135
2253 633 -0.00666666666666667
2253 634 -0.000434978063949838
2253 2253 0.00921656310812869
2253 2254 -0.000622858834069494
2253 2256 0.0
2254 634 -0.000435123367209187
2254 2253 -0.000671471001355918
2254 2254 0.00926582569486444
2255 632 -0.00666666666666667
2255 634 0.0
2255 635 -0.000434979402202776
2255 2255 0.00921599853918038
2255 2256 -0.000622852608399671
2256 633 -0.00666666666666667
2256 634 0.0
2256 635 -0.000435121969745411
2256 2253 0.0
2256 2255 -0.000671396777488897
2256 2256 0.00926518020755456
2257 590 -0.000161367201132705
2257 636 -0.00666666666666667
2257 2257 0.00755649428756813
2257 2258 -7.73653708482778e-08
2258 590 -0.000161480291243208
2258 2257 -5.63245912569737e-10
2258 2258 0.00822676733536496
2259 634 -0.00666666666666667
2259 637 -0.000161423309436031
2259 2259 0.00755721718231079
2259 2260 -6.1622536734668e-10
2260 637 -0.000161424182939881
2260 2259 -4.17514955388786e-12
2260 2260 0.00822717731694086
2261 629 -0.000161423752187323
2261 2261 0.00822719270254209
2261 2262 -3.92176583167849e-10
2262 629 -0.000161423740188589
2262 637 -0.00666666666666667
2262 2261 -4.01055733513957e-10
2262 2262 0.00822661805239806
2263 636 -0.000434964716442319
2263 637 -0.00666666666666667
2263 2263 0.00921803071428143
2263 2264 -0.000624488956449441
2264 636 -0.000435137270613733
2264 2263 -0.000673143999294995
2264 2264 0.0092674579894032
2265 629 -0.000161423317510291
2265 639 -0.00666666666666667
2265 2265 0.00755719884111735
2265 2266 -6.05582245755703e-10
2266 629 -0.000161424174865621
2266 2265 -4.09719349842826e-12
2266 2266 0.00822719290467982
2267 635 -0.00666666666666667
2267 640 -0.000161423235617313
2267 2267 0.00755719632784434
2267 2268 -7.19668653572314e-10
2268 640 -0.000161424256758599
2268 2267 -4.88742792731293e-12
2268 2268 0.00822716417739921
2269 590 -0.000161431097435676
2269 2269 0.00822673892793746
2269 2270 -3.85465175249295e-08
2270 590 -0.000161416394940237
2270 640 -0.00666666666666667
2270 2269 -4.87607625654437e-08
2270 2270 0.00822046889213087
2271 639 -0.000434123548609677
2271 640 -0.00666666666666667
2271 2271 0.00920936888606463
2271 2272 -0.000622560397625597
2272 639 -0.000436014071331951
2272 2271 -0.000669875781881486
2272 2272 0.00926509289165875
2273 642 -0.00666666666666667
2273 2273 0.00927696108602655
2273 2274 -0.000671545420293352
2274 2273 -0.000632627915671011
2274 2274 0.00921776198077606
2275 2275 0.0092202658243442
2275 2276 -0.000556545703137562
2276 643 -0.00666666666666667
2276 2275 -0.000602408833914311
2276 2276 0.00881922173549517
2277 642 -0.000161423599069647
2277 643 -0.00666666666666667
2277 2277 0.00795594792411035
2277 2278 -2.1277683750197e-10
2277 4258 0.0
2278 642 -0.000161423893306266
2278 2277 -2.73445418458471e-12
2278 2278 0.0082271686700103
2279 629 -0.00666666666666667
2279 646 -0.000435044026349502
2279 2279 0.00922079054223713
2279 2280 -0.00062617490778597
2280 646 -0.000435054581088656
2280 2279 -0.000674652724066846
2280 2280 0.00926933372330604
2281 644 -0.000200815667582687
2281 647 -0.00666666666666667
2281 2281 0.00807555137448345
2281 2282 -0.000311775274478786
2281 2284 0.0
2282 644 -0.000626132462157779
2282 2281 -0.000161231757480142
2282 2282 0.00895372834363604
2283 646 -0.00666666666666667
2283 648 -8.74760871910627e-06
2283 2283 0.00757711880141136
2283 2284 -0.000189450184417205
2284 644 0.0
2284 646 0.0
2284 647 -0.00666666666666667
2284 648 -0.000678933813669885
2284 2281 0.0
2284 2283 -2.30783976059587e-05
2284 2284 0.00832713861616276
2285 648 -0.00666666666666667
2285 649 -0.000161423534312252
2285 2285 0.00755983344534296
2285 2286 -3.00297007087386e-10
2286 649 -0.00016142395806366
2286 2285 -2.0173890453836e-12
2286 2286 0.00822710829050683
2287 2287 0.00921859794089705
2287 2288 -0.000645287728552976
2288 649 -0.00666666666666667
2288 2287 -0.000671461758609938
2288 2288 0.00929336166647132
2289 649 -0.00666666666666667
2289 651 -0.000161499426349242
2289 2289 0.00825469366452986
2289 2290 -1.34858265397607e-08
2289 4271 0.0
2290 651 -0.000161348066026671
2290 2289 -2.1136572251057e-07
2290 2290 0.00822777128965413
2291 651 -0.00666666666666667
2291 2291 0.00902089049924759
2291 2292 -0.000611398199502806
2292 2291 -0.000621512175798594
2292 2292 0.00924071304560031
2293 643 -0.000133203828204914
2293 644 -0.00666666666666667
2293 2293 0.00758489414663057
2293 2294 -3.81594181184865e-05
2294 643 -0.000554477594184078
2294 2293 -1.76583073381748e-06
2294 2294 0.0087517625645284
2295 652 -0.00666666666666667
2295 653 -0.000435023352498182
2295 2295 0.00921694787103495
2295 2296 -0.000622875549110629
2296 653 -0.000435076141242082
2296 2295 -0.000671556689509785
2296 2296 0.00926586538965972
2297 654 -0.00666666666666667
2297 655 -0.000435049188710877
2297 2297 0.00921716878108901
2297 2298 -0.000622886316419353
2297 2300 0.0
2298 655 -0.00043504919889822
2298 2297 -0.000671606874278178
2298 2298 0.00926588938457374
2299 653 -0.00666666666666667
2299 655 0.0
2299 656 -0.000161423313380517
2299 2299 0.00755721781610756
2299 2300 -6.10686395487685e-10
2300 654 -0.00666666666666667
2300 655 0.0
2300 656 -0.000161424178995395
2300 2297 0.0
2300 2299 -4.13711682785996e-12
2300 2300 0.00822717709924932
2301 656 -0.00666666666666667
2301 657 -0.000435014945837524
2301 2301 0.00921687647065858
2301 2302 -0.00062287254390911
2302 657 -0.000435084907681736
2302 2301 -0.000671540876851966
2302 2302 0.00926585805994005
2303 2303 0.00822717712936564
2303 2304 -4.11128314368111e-12
2304 657 -0.00666666666666667
2304 2303 -6.06929319904127e-10
2304 2304 0.00755721765744662
2305 657 -0.00666666666666667
2305 2305 0.00755721765744662
2305 2306 -6.06929319768602e-10
2306 2305 -4.11128314368111e-12
2306 2306 0.00822717712936563
2307 655 -0.00666666666666667
2307 659 -0.000161423313471188
2307 2307 0.0075572176538859
2307 2308 -6.10559256318664e-10
2308 659 -0.000161424178904724
2308 2307 -4.13624192489096e-12
2308 2308 0.00822717713308667
2309 621 -0.000161423748575109
2309 2309 0.00822717693070432
2309 2310 -4.00970042731465e-10
2310 621 -0.000161423743800803
2310 659 -0.00666666666666667
2310 2309 -4.04403342469464e-10
2310 2310 0.00822695176085696
2311 659 -0.00666666666666667
2311 660 -0.000435016111300222
2311 2311 0.00921688642847521
2311 2312 -0.000622873024233366
2312 660 -0.000435083692344642
2312 2311 -0.000671543134942479
2312 2312 0.00926585913807351
2313 662 -0.00666666666666667
2313 663 -0.000435014924430681
2313 2313 0.00921687629983309
2313 2314 -0.000622872547165052
2313 4295 0.0
2314 663 -0.000435084930004601
2314 2313 -0.000671540847971295
2314 2314 0.00926585805272851
2315 664 -0.00666666666666667
2315 665 -0.000435049188263474
2315 2315 0.00921716878067057
2315 2316 -0.00062288631968486
2315 2318 0.0
2316 665 -0.000435049199364783
2316 2315 -0.000671606877003453
2316 2316 0.00926588938770845
2317 663 -0.00666666666666667
2317 665 0.0
2317 666 -0.000161423313378626
2317 2317 0.0075572176524379
2317 2318 -6.10689040449987e-10
2318 664 -0.00666666666666667
2318 665 0.0
2318 666 -0.000161424178997286
2318 2315 0.0
2318 2317 -4.13713440957627e-12
2318 2318 0.00822717709614393
2319 621 -0.00016142331336615
2319 667 -0.00666666666666667
2319 2319 0.00755721765207955
2319 2320 -6.10706551944965e-10
2320 621 -0.000161424179009763
2320 2319 -4.13725467961124e-12
2320 2320 0.00822717713458392
2321 665 -0.00666666666666667
2321 668 -0.00016142331557145
2321 2321 0.00755721765239817
2321 2322 -6.0761402877114e-10
2322 668 -0.000161424176804462
2322 2321 -4.11599093120006e-12
2322 2322 0.00822717713005806
2323 660 -0.000435055716669636
2323 2323 0.00926588367178806
2323 2324 -0.000671594832438413
2324 660 -0.000435042938584861
2324 668 -0.00666666666666667
2324 2323 -0.000622883807627942
2324 2324 0.00921711542063954
2325 667 -0.000435042938584864
2325 668 -0.00666666666666667
2325 2325 0.00921711542225989
2325 2326 -0.000622883808601936
2326 667 -0.000435055716669632
2326 2325 -0.000671594833533353
2326 2326 0.0092658836735294
2327 660 -0.000435014924590734
2327 670 -0.00666666666666667
2327 2327 0.00921687630121105
2327 2328 -0.000622872547211143
2328 660 -0.000435084929837699
2328 2327 -0.000671540848264394
2328 2328 0.00926585805288993
2329 666 -0.00666666666666667
2329 671 -0.000435014924466399
2329 2329 0.00921687629817317
2329 2330 -0.000622872544373527
2330 671 -0.000435084929967366
2330 2329 -0.000671540845217228
2330 2330 0.00926585805077999
2331 621 -0.00016142417900976
2331 2331 0.00822717713458392
2331 2332 -4.13725463469867e-12
2332 621 -0.000161423313366152
2332 671 -0.00666666666666667
2332 2331 -6.10706548612635e-10
2332 2332 0.00755721765366132
2333 670 -0.000161423313378039
2333 671 -0.00666666666666667
2333 2333 0.00755721765355719
2333 2334 -6.10689879340447e-10
2334 670 -0.000161424178997873
2334 2333 -4.13713996767742e-12
2334 2334 0.00822717713313662
2335 673 -0.00666666666666667
2335 2335 0.00755721765237517
2335 2336 -6.06929330558692e-10
2336 2335 -4.11128320041531e-12
2336 2336 0.00822717712936565
2337 2337 0.00822717692676107
2337 2338 -3.98503993612473e-10
2338 674 -0.00666666666666667
2338 2337 -4.01916224886744e-10
2338 2338 0.00822695176179775
2339 673 -0.000435016112049733
2339 674 -0.00666666666666667
2339 2339 0.00921688643492086
2339 2340 -0.000622873024631909
2340 673 -0.000435083691563056
2340 2339 -0.000671543136482271
2340 2340 0.00926585913880649
2341 660 -0.00666666666666667
2341 677 -0.000161423305232396
2341 2341 0.00755721765252322
2341 2342 -6.22111784075275e-10
2342 677 -0.000161424187143516
2342 2341 -4.21568940485412e-12
2342 2342 0.00822717714448811
2343 675 -0.000434980660273002
2343 678 -0.00666666666666667
2343 2343 0.00921658397562743
2343 2344 -0.000622858773500244
2343 2346 0.0
2344 675 -0.000435120659876176
2344 2343 -0.00067147483056846
2344 2344 0.0092658267234966
2345 677 -0.00666666666666667
2345 679 -0.000434980641243668
2345 2345 0.00921598447242718
2345 2346 -0.000622806883368842
2346 675 0.0
2346 677 0.0
2346 678 -0.00666666666666667
2346 679 -0.000435120678167986
2346 2343 0.0
2346 2345 -0.000671353608099205
2346 2346 0.00926515741215892
2347 679 -0.00666666666666667
2347 680 -0.000161423313471232
2347 2347 0.00755721765241008
2347 2348 -6.10559194886172e-10
2348 680 -0.00016142417890468
2348 2347 -4.13624141658311e-12
2348 2348 0.00822717713298094
2349 2349 0.00822717692676107
2349 2350 -3.98503993629537e-10
2350 680 -0.00666666666666667
2350 2349 -4.01916224750255e-10
2350 2350 0.00822695176179894
2351 680 -0.00666666666666667
2351 682 -0.000435016112049908
2351 2351 0.00921688643492234
2351 2352 -0.000622873024631969
2352 682 -0.000435083691562874
2352 2351 -0.000671543136482597
2352 2352 0.00926585913880664
2353 682 -0.00666666666666667
2353 2353 0.00755721765237517
2353 2354 -6.06929330558678e-10
2354 2353 -4.11128320041522e-12
2354 2354 0.00822717712936565
2355 674 -0.000161423313471232
2355 675 -0.00666666666666667
2355 2355 0.00755721765240915
2355 2356 -6.10559194907676e-10
2356 674 -0.00016142417890468
2356 2355 -4.13624147093785e-12
2356 2356 0.00822717713298094
2357 683 -0.00666666666666667
2357 684 -0.000435014932601145
2357 2357 0.00921687613607914
2357 2358 -0.000622872309434754
2358 684 -0.000435084921485382
2358 2357 -0.000671540613305317
2358 2358 0.00926585781733489
2359 685 -0.00666666666666667
2359 686 -0.00016142336004666
2359 2359 0.00759121301019225
2359 2360 -5.46169842951881e-10
2359 2362 0.0
2360 686 -0.000161424132329252
2360 2359 -3.8191824861258e-12
2360 2360 0.00822717717071065
2361 684 -0.00666666666666667
2361 686 0.0
2361 687 -0.000161423119060364
2361 2361 0.00755721776272199
2361 2362 -6.94836199054006e-10
2362 685 -0.00666666666666667
2362 686 0.0
2362 687 -0.000161424373315548
2362 2359 0.0
2362 2361 -1.25468739914664e-11
2362 2362 0.00759121369204143
2363 687 -0.00666666666666667
2363 688 -0.00016142318159727
2363 2363 0.00755721898424006
2363 2364 -7.95365337200214e-10
2363 4347 0.0
2364 688 -0.000161424310778642
2364 2363 -5.40934677579967e-12
2364 2364 0.00822717800588011
2365 2365 0.00926452030343003
2365 2366 -0.00066872121643062
2366 688 -0.00666666666666667
2366 2365 -0.000622281047419194
2366 2366 0.00920448407564963
2367 688 -0.00666666666666667
2367 2367 0.00920291934243666
2367 2368 -0.00062214008648722
2368 2367 -0.000668399806909404
2368 2368 0.00926273191293569
2369 686 -0.00666666666666667
2369 690 -0.000435021995940366
2369 2369 0.00921682348368781
2369 2370 -0.000622756694074473
2370 690 -0.000435077556208205
2370 2369 -0.000671431373639224
2370 2370 0.00926574695221288
2371 652 -0.000161424178244699
2371 2371 0.00822717725536971
2371 2372 -4.13006085521292e-12
2372 652 -0.000161423314131213
2372 690 -0.00666666666666667
2372 2371 -6.09640574535709e-10
2372 2372 0.00755726759055259
2373 690 -0.00666666666666667
2373 691 -0.0001614234854617
2373 2373 0.00755727139187646
2373 2374 -3.70429927246309e-10
2374 691 -0.000161424006914212
2374 2373 -2.48123275689688e-12
2374 2374 0.00822722962912524
2375 693 -0.00666666666666667
2375 694 -0.000161423305246577
2375 2375 0.007557217656027
2375 2376 -6.22091901725075e-10
2375 4357 0.0
2376 694 -0.000161424187129335
2376 2375 -4.21555276492109e-12
2376 2376 0.00822717714627387
2377 695 -0.00666666666666667
2377 696 -0.000434980863637928
2377 2377 0.00921658104872763
2377 2378 -0.000622854034507566
2377 2380 0.0
2378 696 -0.000435120447850465
2378 2377 -0.000671470214801775
2378 2378 0.00926582206155608
2379 694 -0.00666666666666667
2379 697 -0.000434980612246944
2379 2379 0.00921598570305219
2379 2380 -0.000622806719992244
2380 694 0.0
2380 695 -0.00666666666666667
2380 696 0.0
2380 697 -0.000435120708410805
2380 699 0.0
2380 702 0.0
2380 2377 0.0
2380 2379 -0.00067135359359822
2380 2380 0.00926515905834469
2381 652 -0.000161423314059392
2381 698 -0.00666666666666667
2381 2381 0.00755722114123722
2381 2382 -6.09739841581688e-10
2382 652 -0.00016142417831652
2382 2381 -4.13058279052572e-12
2382 2382 0.00822717725546858
2383 696 -0.00666666666666667
2383 699 -0.000161423320520808
2383 2383 0.00755721979203458
2383 2384 -6.00736958280086e-10
2384 699 -0.000161424171855104
2384 2383 -4.0682764925839e-12
2384 2384 0.0082271785985046
2385 691 -0.000161423743701963
2385 2385 0.00822722950591394
2385 2386 -2.53032242462856e-10
2386 691 -0.00016142374867395
2386 699 -0.00666666666666667
2386 2385 -2.45723983761991e-10
2386 2386 0.0082276086748348
2387 698 -0.000435106719724831
2387 699 -0.00666666666666667
2387 2387 0.00926625279535238
2387 2388 -0.000671596115313023
2388 698 -0.000434994029732973
2388 2387 -0.000623222898203098
2388 2388 0.0092171808766661
2389 691 -0.000161423485478031
2389 701 -0.00666666666666667
2389 2389 0.00755728897650767
2389 2390 -3.70407208686472e-10
2390 691 -0.000161424006897881
2390 2389 -2.48111433259075e-12
2390 2390 0.00822722962910261
2391 697 -0.00666666666666667
2391 702 -0.000161423313971484
2391 2391 0.00755721778752635
2391 2392 -6.0986106165823e-10
2392 702 -0.000161424178404428
2392 2391 -4.13141811987293e-12
2392 2392 0.00822717721123179
2393 652 -0.00016142374812038
2393 2393 0.00822717705188596
2393 2394 -4.00953602691749e-10
2394 652 -0.000161423744255533
2394 702 -0.00666666666666667
2394 2393 -4.0373488904053e-10
2394 2394 0.00822699461577018
2395 701 -0.000435022363973044
2395 702 -0.00666666666666667
2395 2395 0.00921678605589728
2395 2396 -0.000622715238128927
2396 701 -0.000435077172538277
2396 2395 -0.000671388823848062
2396 2396 0.00926570506586137
2397 704 -0.00666666666666667
2397 2397 0.00897119442339463
2397 2398 -0.000607757345455319
2398 2397 -0.00060681477620686
2398 2398 0.00923427126754335
2399 2399 0.00921865858631708
2399 2400 -0.000646212508082314
2400 705 -0.00666666666666667
2400 2399 -0.000671454241685536
2400 2400 0.00929466349621912
2401 704 -0.000161778513994174
2401 705 -0.00666666666666667
2401 2401 0.00825745095197303
2401 2402 -2.25014932097519e-08
2401 4399 0.0
2402 704 -0.000161068978381738
2402 2401 -9.32632147974648e-07
2402 2402 0.00822685297960726
2403 691 -0.00666666666666667
2403 708 -0.000438162222449142
2403 2403 0.0092198267292011
2403 2404 -0.000604491260295871
2404 708 -0.000432071491857211
2404 2403 -0.000576029289608053
2404 2404 0.0091570168792921
2405 706 -0.000357123790381601
2405 709 -0.00666666666666667
2405 2405 0.00877723644056936
2405 2406 -0.000590990666065788
2405 2408 0.0
2406 706 -0.000513334443915618
2406 2405 -0.000541755128362728
2406 2406 0.0092077690986431
2407 708 -0.00666666666666667
2407 710 3.1248911200597e-05
2407 2407 0.00763192860819197
2407 2408 -0.000266001580375158
2408 706 0.0
2408 708 0.0
2408 709 -0.00666666666666667
2408 710 -0.000718930333589588
2408 2405 0.0
2408 2407 -4.71912218750804e-05
2408 2408 0.0086180223907749
2409 710 -0.00666666666666667
2409 711 -0.000131393333165139
2409 2409 0.0075773072587416
2409 2410 -4.05266342026754e-05
2410 711 -0.000556288089223853
2410 2409 -1.76948864124387e-06
2410 2410 0.00875391878258712
2411 2411 0.00921979766533967
2411 2412 -0.000555336769390312
2412 711 -0.00666666666666667
2412 2411 -0.000602143233936806
2412 2412 0.0088158523663734
2413 711 -0.00666666666666667
2413 713 -0.000161423598610963
2413 2413 0.00795402864518519
2413 2414 -2.13417891562775e-10
2413 4394 0.0
2414 713 -0.000161423893764949
2414 2413 -2.73140611218113e-12
2414 2414 0.00822716826171295
2415 713 -0.00666666666666667
2415 2415 0.00927693305629184
2415 2416 -0.000671545581847467
2416 2415 -0.000632604555455441
2416 2416 0.00921776054189131
2417 705 -0.000161423540387061
2417 706 -0.00666666666666667
2417 2417 0.00755685740523828
2417 2418 -2.91698868024502e-10
2418 705 -0.000161423951988851
2418 2417 -1.95386055106566e-12
2418 2418 0.00822713227244222
2419 714 -0.00666666666666667
2419 715 -0.000435014924420944
2419 2419 0.0092168762998093
2419 2420 -0.000622872547226495
2420 715 -0.000435084930014754
2420 2419 -0.000671540848019947
2420 2420 0.00926585805278096
2421 716 -0.00666666666666667
2421 717 -0.000435049188236811
2421 2421 0.0092171687804567
2421 2422 -0.000622886319690002
2421 2424 0.0
2422 717 -0.000435049199392587
2422 2421 -0.000671606876968351
2422 2422 0.00926588938769827
2423 715 -0.00666666666666667
2423 717 0.0
2423 718 -0.00016142331337862
2423 2423 0.00755721765240836
2423 2424 -6.10689049049816e-10
2424 716 -0.00666666666666667
2424 717 0.0
2424 718 -0.000161424178997292
2424 2421 0.0
2424 2423 -4.13713441548758e-12
2424 2424 0.00822717709592827
2425 718 -0.00666666666666667
2425 719 -0.00043501492439924
2425 2425 0.00921687628880355
2425 2426 -0.000622872536396895
2426 719 -0.000435084930037426
2426 2425 -0.000671540836694003
2426 2426 0.00926585804147756
2427 2427 0.00822717712936564
2427 2428 -4.11128314894905e-12
2428 719 -0.00666666666666667
2428 2427 -6.06929320743387e-10
2428 2428 0.00755721765697573
2429 719 -0.00666666666666667
2429 2429 0.00755721765697573
2429 2430 -6.06929320770492e-10
2430 2429 -4.11128314894905e-12
2430 2430 0.00822717712936564
2431 717 -0.00666666666666667
2431 721 -0.00016142331347139
2431 2431 0.00755721765241194
2431 2432 -6.10558973788768e-10
2432 721 -0.000161424178904522
2432 2431 -4.13623989629973e-12
2432 2432 0.00822717713298089
2433 683 -0.000161423748574845
2433 2433 0.00822717692931345
2433 2434 -4.00958843987353e-10
2434 683 -0.000161423743801067
2434 721 -0.00666666666666667
2434 2433 -4.04391742677633e-10
2434 2434 0.00822695177799862
2435 721 -0.00666666666666667
2435 722 -0.000435016114058516
2435 2435 0.00921688645197418
2435 2436 -0.000622873025349945
2436 722 -0.000435083689468308
2436 2435 -0.000671543140259736
2436 2436 0.00926585914054997
2437 724 -0.00666666666666667
2437 725 -0.000435014924421
2437 2437 0.00921687629980919
2437 2438 -0.000622872547226044
2437 4419 0.0
2438 725 -0.000435084930014696
2438 2437 -0.000671540848019547
2438 2438 0.00926585805278039
2439 726 -0.00666666666666667
2439 727 -0.000435049188236881
2439 2439 0.00921716878047955
2439 2440 -0.00062288631971183
2439 2442 0.0
2440 727 -0.000435049199392514
2440 2439 -0.000671606876991275
2440 2440 0.00926588938772158
2441 725 -0.00666666666666667
2441 728 -0.000161423313378622
2441 2441 0.00755721765240855
2441 2442 -6.10689045533099e-10
2442 725 0.0
2442 726 -0.00666666666666667
2442 727 0.0
2442 728 -0.00016142417899729
2442 2439 0.0
2442 2441 -4.13713449972606e-12
2442 2442 0.00822717709592845
2443 683 -0.000161423313378673
2443 729 -0.00666666666666667
2443 2443 0.00755721765259115
2443 2444 -6.10688990283018e-10
2444 683 -0.000161424178997239
2444 2443 -4.13713398632516e-12
2444 2444 0.00822717713318715
2445 727 -0.00666666666666667
2445 730 -0.000161423315571432
2445 2445 0.00755721765238152
2445 2446 -6.07614054224396e-10
2446 730 -0.000161424176804481
2446 2445 -4.11599110620315e-12
2446 2446 0.00822717713004738
2447 722 -0.00043505571689427
2447 2447 0.00926588367156189
2447 2448 -0.000671594832028563
2448 722 -0.00043504293836945
2448 730 -0.00666666666666667
2448 2447 -0.000622883807550479
2448 2448 0.00921711541877511
2449 729 -0.000435042938369449
2449 730 -0.00666666666666667
2449 2449 0.00921711541842837
2449 2450 -0.000622883807208666
2450 729 -0.000435055716894271
2450 2449 -0.000671594831671507
2450 2450 0.00926588367119991
2451 722 -0.000435014924446868
2451 732 -0.00666666666666667
2451 2451 0.00921687629995553
2451 2452 -0.000622872547162217
2452 722 -0.000435084929987721
2452 2451 -0.000671540847991965
2452 2452 0.00926585805272643
2453 728 -0.00666666666666667
2453 733 -0.000435014924431677
2453 2453 0.00921687628816157
2453 2454 -0.000622872535485858
2454 733 -0.000435084930003604
2454 2453 -0.000671540835793514
2454 2454 0.00926585804054953
2455 683 -0.000161424178997232
2455 2455 0.00822717713318714
2455 2456 -4.1371338508731e-12
2456 683 -0.00016142331337868
2456 733 -0.00666666666666667
2456 2455 -6.10688980014658e-10
2456 2456 0.00755721765740006
2457 732 -0.00016142331337803
2457 733 -0.00666666666666667
2457 2457 0.00755721765739484
2457 2458 -6.106898913937e-10
2458 732 -0.000161424178997882
2458 2457 -4.13714011819061e-12
2458 2458 0.00822717713311064
2459 735 -0.00666666666666667
2459 2459 0.00755721765237516
2459 2460 -6.06929330558715e-10
2460 2459 -4.11128320041546e-12
2460 2460 0.00822717712936565
2461 2461 0.00822717692676107
2461 2462 -3.98503993602973e-10
2462 736 -0.00666666666666667
2462 2461 -4.01916224751758e-10
2462 2462 0.00822695176179708
2463 735 -0.000435016112049635
2463 736 -0.00666666666666667
2463 2463 0.00921688643492004
2463 2464 -0.000622873024631876
2464 735 -0.000435083691563157
2464 2463 -0.00067154313648209
2464 2464 0.00926585913880641
2465 722 -0.00666666666666667
2465 739 -0.000161423305232395
2465 2465 0.00755721765252196
2465 2466 -6.22111785671114e-10
2466 739 -0.000161424187143517
2466 2465 -4.21568947004118e-12
2466 2466 0.00822717714448712
2467 737 -0.000434980660275542
2467 740 -0.00666666666666667
2467 2467 0.00921658397565005
2467 2468 -0.000622858773502375
2467 2470 0.0
2468 737 -0.000435120659873528
2468 2467 -0.000671474830574493
2468 2468 0.00926582672349992
2469 739 -0.00666666666666667
2469 741 -0.000434980641228473
2469 2469 0.00921598447232291
2469 2470 -0.000622806883367965
2470 737 0.0
2470 739 0.0
2470 740 -0.00666666666666667
2470 741 -0.00043512067818383
2470 2467 0.0
2470 2469 -0.000671353608077846
2470 2470 0.00926515741217292
2471 741 -0.00666666666666667
2471 742 -0.000161423313471232
2471 2471 0.00755721765240869
2471 2472 -6.1055919491963e-10
2472 742 -0.00016142417890468
2472 2471 -4.13624141680836e-12
2472 2472 0.00822717713298094
2473 2473 0.00822717692676107
2473 2474 -3.98503993603033e-10
2474 742 -0.00666666666666667
2474 2473 -4.01916224778864e-10
2474 2474 0.00822695176179709
2475 742 -0.00666666666666667
2475 744 -0.000435016112049636
2475 2475 0.00921688643492004
2475 2476 -0.000622873024631876
2476 744 -0.000435083691563157
2476 2475 -0.000671543136482092
2476 2476 0.00926585913880641
2477 744 -0.00666666666666667
2477 2477 0.00755721765237516
2477 2478 -6.06929330558716e-10
2478 2477 -4.11128320041546e-12
2478 2478 0.00822717712936565
2479 736 -0.000161423313471232
2479 737 -0.00666666666666667
2479 2479 0.00755721765240869
2479 2480 -6.10559194919673e-10
2480 736 -0.00016142417890468
2480 2479 -4.13624144391368e-12
2480 2480 0.00822717713298094
2481 745 -0.00666666666666667
2481 746 -0.000161423305232395
2481 2481 0.00755721765251413
2481 2482 -6.22111785760815e-10
2482 746 -0.000161424187143517
2482 2481 -4.21568947063008e-12
2482 2482 0.00822717714448719
2483 747 -0.00666666666666667
2483 748 -0.000434980660275052
2483 2483 0.00921658397564588
2483 2484 -0.000622858773502177
2483 2486 0.0
2484 748 -0.000435120659874039
2484 2483 -0.000671474830573549
2484 2484 0.00926582672349948
2485 746 -0.00666666666666667
2485 748 0.0
2485 749 -0.000434980641228201
2485 2485 0.00921598447233067
2485 2486 -0.000622806883381814
2486 747 -0.00666666666666667
2486 748 0.0
2486 749 -0.000435120678184114
2486 2483 0.0
2486 2485 -0.000671353608091402
2486 2486 0.00926515741218288
2487 749 -0.00666666666666667
2487 750 -0.000161423315571431
2487 2487 0.00755721765238151
2487 2488 -6.0761405475913e-10
2488 750 -0.000161424176804481
2488 2487 -4.11599108277345e-12
2488 2488 0.00822717713004762
2489 2489 0.00926588367541716
2489 2490 -0.000671594835878273
2490 750 -0.00666666666666667
2490 2489 -0.000622883811249624
2490 2490 0.00921711542243204
2491 750 -0.00666666666666667
2491 2491 0.00921711542243204
2491 2492 -0.000622883811249623
2492 2491 -0.000671594835878273
2492 2492 0.00926588367541716
2493 748 -0.00666666666666667
2493 752 -0.000161423313471367
2493 2493 0.00755721765240868
2493 2494 -6.10559005432625e-10
2494 752 -0.000161424178904545
2494 2493 -4.13624016808591e-12
2494 2494 0.00822717713298075
2495 714 -0.00016142374857487
2495 2495 0.00822717692923711
2495 2496 -4.00959412732088e-10
2496 714 -0.000161423743801043
2496 752 -0.00666666666666667
2496 2495 -4.04392344956488e-10
2496 2496 0.00822695177596774
2497 752 -0.00666666666666667
2497 753 -0.000435016113771493
2497 2497 0.0092168864495403
2497 2498 -0.000622873025249981
2498 753 -0.000435083689767614
2498 2497 -0.000671543139722759
2498 2498 0.00926585914030375
2499 755 -0.00666666666666667
2499 756 -0.000435014924420943
2499 2499 0.00921687629980933
2499 2500 -0.000622872547226514
2499 4481 0.0
2500 756 -0.000435084930014755
2500 2499 -0.000671540848019967
2500 2500 0.009265858052781
2501 757 -0.00666666666666667
2501 758 -0.000435049188236651
2501 2501 0.0092171687804778
2501 2502 -0.000622886319711839
2501 2504 0.0
2502 758 -0.000435049199392754
2502 2501 -0.00067160687699095
2502 2502 0.0092658893877216
2503 756 -0.00666666666666667
2503 758 0.0
2503 759 -0.00016142331337862
2503 2503 0.00755721765240835
2503 2504 -6.10689049042042e-10
2504 757 -0.00666666666666667
2504 758 0.0
2504 759 -0.000161424178997292
2504 2501 0.0
2504 2503 -4.13713457806971e-12
2504 2504 0.00822717709592722
2505 714 -0.000161423313378021
2505 760 -0.00666666666666667
2505 2505 0.00755721765240989
2505 2506 -6.10689904846968e-10
2506 714 -0.000161424178997892
2506 2505 -4.13714016632382e-12
2506 2506 0.00822717713311112
2507 758 -0.00666666666666667
2507 761 -0.000161423315571431
2507 2507 0.00755721765238149
2507 2508 -6.07614054902494e-10
2508 761 -0.000161424176804481
2508 2507 -4.11599100244394e-12
2508 2508 0.00822717713004762
2509 753 -0.000435055716901091
2509 2509 0.00926588367157234
2509 2510 -0.000671594832032081
2510 753 -0.00043504293836291
2510 761 -0.00666666666666667
2510 2509 -0.000622883807563274
2510 2510 0.00921711541873501
2511 760 -0.00043504293836291
2511 761 -0.00666666666666667
2511 2511 0.0092171154187907
2511 2512 -0.000622883807618967
2512 760 -0.000435055716901091
2512 2511 -0.000671594832090159
2512 2512 0.00926588367163041
2513 753 -0.000435014924420824
2513 763 -0.00666666666666667
2513 2513 0.00921687629974903
2513 2514 -0.000622872547167175
2514 753 -0.000435084930014879
2514 2513 -0.000671540847957907
2514 2514 0.00926585805271907
2515 759 -0.00666666666666667
2515 764 -0.000435014924399087
2515 2515 0.00921687628872892
2515 2516 -0.0006228725363235
2516 764 -0.000435084930037586
2516 2515 -0.000671540836617236
2516 2516 0.00926585804140095
2517 714 -0.000161424178997885
2517 2517 0.00822717713311111
2517 2518 -4.13714014137465e-12
2518 714 -0.000161423313378028
2518 764 -0.00666666666666667
2518 2517 -6.10689894920462e-10
2518 2518 0.00755721765703381
2519 763 -0.000161423313378028
2519 764 -0.00666666666666667
2519 2519 0.00755721765703381
2519 2520 -6.10689894960658e-10
2520 763 -0.000161424178997884
2520 2519 -4.13714014146466e-12
2520 2520 0.00822717713311111
2521 766 -0.00666666666666667
2521 2521 0.00921687630349792
2521 2522 -0.000622872550856053
2522 2521 -0.000671540851815857
2522 2522 0.00926585805656934
2523 2523 0.00926585809685316
2523 2524 -0.000671540936702173
2524 767 -0.00666666666666667
2524 2523 -0.000622872568564182
2524 2524 0.00921687667944103
2525 766 -0.000161423743718749
2525 767 -0.00666666666666667
2525 2525 0.00822694398364713
2525 2526 -4.04398689239843e-10
2525 4523 0.0
2526 766 -0.000161423748657163
2526 2525 -4.00847403514244e-10
2526 2526 0.00822717692924298
2527 753 -0.00666666666666667
2527 770 -0.000161423305232395
2527 2527 0.00755721765251538
2527 2528 -6.2211178577105e-10
2528 770 -0.000161424187143517
2528 2527 -4.21568947070519e-12
2528 2528 0.00822717714448713
2529 768 -0.000434980660275194
2529 771 -0.00666666666666667
2529 2529 0.00921658397564648
2529 2530 -0.000622858773501632
2529 2532 0.0
2530 768 -0.000435120659873891
2530 2529 -0.000671474830573193
2530 2530 0.00926582672349898
2531 770 -0.00666666666666667
2531 772 -0.000434980641228032
2531 2531 0.00921598447231553
2531 2532 -0.000622806883366931
2532 768 0.0
2532 770 0.0
2532 771 -0.00666666666666667
2532 772 -0.000435120678184291
2532 2529 0.0
2532 2531 -0.000671353608075764
2532 2532 0.00926515741216851
2533 772 -0.00666666666666667
2533 773 -0.000161423313381479
2533 2533 0.00755721765240984
2533 2534 -6.10685055063976e-10
2534 773 -0.000161424178994433
2534 2533 -4.13710687281217e-12
2534 2534 0.00822717713310629
2535 2535 0.00926585809685316
2535 2536 -0.000671540936702173
2536 773 -0.00666666666666667
2536 2535 -0.000622872568564182
2536 2536 0.00921687667944103
2537 773 -0.00666666666666667
2537 775 -0.000161423743718749
2537 2537 0.00822694398364713
2537 2538 -4.04398689239843e-10
2537 4519 0.0
2538 775 -0.000161423748657163
2538 2537 -4.00847403514244e-10
2538 2538 0.00822717692924298
2539 775 -0.00666666666666667
2539 2539 0.00921687630349792
2539 2540 -0.000622872550856053
2540 2539 -0.000671540851815857
2540 2540 0.00926585805656934
2541 767 -0.000161423313381479
2541 768 -0.00666666666666667
2541 2541 0.00755721765240984
2541 2542 -6.10685055063976e-10
2541 4503 0.0
2542 767 -0.000161424178994433
2542 2541 -4.13710687281217e-12
2542 2542 0.00822717713310629
2543 776 -0.00666666666666667
2543 777 -0.000161423305219606
2543 2543 0.00755721677996595
2543 2544 -6.22129690587314e-10
2544 777 -0.000161424187156307
2544 2543 -4.21580947944238e-12
2544 2544 0.00822717714566923
2545 778 -0.00666666666666667
2545 779 -0.000434980605991956
2545 2545 0.00921658351635085
2545 2546 -0.000622858755231564
2545 2548 0.0
2546 779 -0.000435120716478293
2546 2545 -0.000671474729715683
2546 2546 0.00926582667773451
2547 777 -0.00666666666666667
2547 780 -0.00043498055118821
2547 2547 0.00921598323977217
2547 2548 -0.000622806813899396
2548 777 0.0
2548 778 -0.00666666666666667
2548 779 0.0
2548 780 -0.000435120772070955
2548 783 0.0
2548 2545 0.0
2548 2547 -0.000671353347083358
2548 2548 0.00926515680964767
2549 780 -0.00666666666666667
2549 781 -0.000161423313471206
2549 2549 0.00755721764896766
2549 2550 -6.10559231671319e-10
2550 781 -0.000161424178904706
2550 2549 -4.1362416574305e-12
2550 2550 0.00822717713301475
2551 2551 0.00822717692676107
2551 2552 -3.98503963674477e-10
2552 781 -0.00666666666666667
2552 2551 -4.01916226534076e-10
2552 2552 0.00822695175970214
2553 781 -0.00666666666666667
2553 2553 0.00921688643582909
2553 2554 -0.000622873028116618
2554 2553 -0.000671543139638233
2554 2554 0.00926585914228756
2555 779 -0.00666666666666667
2555 783 -0.000161423313381465
2555 2555 0.00755721765087293
2555 2556 -6.10685075298004e-10
2556 783 -0.000161424178994448
2556 2555 -4.13710692525393e-12
2556 2556 0.00822717713311652
2557 745 -0.000435084884244978
2557 2557 0.00926585809286093
2557 2558 -0.000671540932535799
2558 745 -0.000435014968312468
2558 783 -0.00666666666666667
2558 2557 -0.000622872564813009
2558 2558 0.00921687667431766
2559 783 -0.00666666666666667
2559 784 -0.000161423743718738
2559 2559 0.00822694398251594
2559 2560 -4.04398690916013e-10
2560 784 -0.000161423748657175
2560 2559 -4.00847388083247e-10
2560 2560 0.00822717692924319
2561 786 -0.00666666666666667
2561 787 -0.000435014924419122
2561 2561 0.00921687629888584
2561 2562 -0.000622872546317802
2561 4543 0.0
2562 787 -0.000435084930016657
2562 2561 -0.000671540847069607
2562 2562 0.00926585805183253
2563 788 -0.00666666666666667
2563 789 -0.000161423359539925
2563 2563 0.0075912124995574
2563 2564 -5.46878175870652e-10
2563 2566 0.0
2564 789 -0.000161424132835987
2564 2563 -3.8242392979954e-12
2564 2564 0.00822717706955713
2565 787 -0.00666666666666667
2565 789 0.0
2565 790 -0.000161423118848986
2565 2565 0.00755721766126242
2565 2566 -6.95070274241472e-10
2566 788 -0.00666666666666667
2566 789 0.0
2566 790 -0.000161424373526927
2566 2563 0.0
2566 2565 -1.25511383854575e-11
2566 2566 0.00759121319033947
2567 745 -0.000435014924420903
2567 791 -0.00666666666666667
2567 2567 0.00921687629975387
2567 2568 -0.0006228725471698
2568 745 -0.000435084930014797
2568 2567 -0.000671540847960958
2568 2568 0.00926585805272362
2569 789 -0.00666666666666667
2569 792 -0.000435014924399099
2569 2569 0.0092168762887291
2569 2570 -0.000622872536323504
2570 792 -0.000435084930037574
2570 2569 -0.000671540836617268
2570 2570 0.00926585804140105
2571 784 -0.000161424178997885
2571 2571 0.00822717713311131
2571 2572 -4.1371401438083e-12
2572 784 -0.000161423313378027
2572 792 -0.00666666666666667
2572 2571 -6.1068989541006e-10
2572 2572 0.00755721765703381
2573 791 -0.000161423313378028
2573 792 -0.00666666666666667
2573 2573 0.0075572176570338
2573 2574 -6.10689894941938e-10
2574 791 -0.000161424178997884
2574 2573 -4.13714008712551e-12
2574 2574 0.00822717713311117
2575 784 -0.00016142331337802
2575 794 -0.00666666666666667
2575 2575 0.00755721765240996
2575 2576 -6.10689905200929e-10
2576 784 -0.000161424178997892
2576 2575 -4.13714022296703e-12
2576 2576 0.00822717713311132
2577 790 -0.00666666666666667
2577 795 -0.000161423315571431
2577 2577 0.00755721765238151
2577 2578 -6.07614054881568e-10
2578 795 -0.000161424176804481
2578 2577 -4.11599102940498e-12
2578 2578 0.00822717713004766
2579 745 -0.00043505571690096
2579 2579 0.00926588367157693
2579 2580 -0.000671594832035221
2580 745 -0.000435042938363036
2580 795 -0.00666666666666667
2580 2579 -0.000622883807565918
2580 2580 0.00921711541874025
2581 794 -0.000435042938363036
2581 795 -0.00666666666666667
2581 2581 0.00921711541879171
2581 2582 -0.000622883807618875
2582 794 -0.000435055716900959
2582 2581 -0.000671594832090262
2582 2582 0.00926588367163047
2583 797 -0.00666666666666667
2583 2583 0.00921687630349792
2583 2584 -0.000622872550856053
2584 2583 -0.000671540851815857
2584 2584 0.00926585805656934
2585 2585 0.00822717712936564
2585 2586 -4.11128314877484e-12
2586 798 -0.00666666666666667
2586 2585 -6.06929320872888e-10
2586 2586 0.0075572176569913
2587 797 -0.000161423313378028
2587 798 -0.00666666666666667
2587 2587 0.00755721765701824
2587 2588 -6.10689894184682e-10
2588 797 -0.000161424178997884
2588 2587 -4.13714005475986e-12
2588 2588 0.00822717713311111
2589 784 -0.00666666666666667
2589 801 -0.000435014924417416
2589 2589 0.00921687629887129
2589 2590 -0.000622872546317053
2590 801 -0.000435084930018437
2590 2589 -0.000671540847066263
2590 2590 0.00926585805183099
2591 799 -0.000161423359539925
2591 802 -0.00666666666666667
2591 2591 0.00759121249955737
2591 2592 -5.46878175863875e-10
2591 2594 0.0
2592 799 -0.000161424132835987
2592 2591 -3.82423935215729e-12
2592 2592 0.00822717706955713
2593 801 -0.00666666666666667
2593 803 -0.000161423118848986
2593 2593 0.00755721766126244
2593 2594 -6.95070274239683e-10
2594 799 0.0
2594 801 0.0
2594 802 -0.00666666666666667
2594 803 -0.000161424373526927
2594 2591 0.0
2594 2593 -1.25511383583243e-11
2594 2594 0.00759121319033944
2595 803 -0.00666666666666667
2595 804 -0.000161423315571431
2595 2595 0.00755721765238149
2595 2596 -6.07614054884462e-10
2596 804 -0.000161424176804481
2596 2595 -4.11599111074019e-12
2596 2596 0.00822717713004762
2597 2597 0.00926588367541611
2597 2598 -0.00067159483587607
2598 804 -0.00666666666666667
2598 2597 -0.000622883811249164
2598 2598 0.00921711542242228
2599 804 -0.00666666666666667
2599 806 -0.000435042938363075
2599 2599 0.00921711541881044
2599 2600 -0.000622883807637366
2600 806 -0.000435055716900919
2600 2599 -0.000671594832109594
2600 2600 0.00926588367164968
2601 806 -0.00666666666666667
2601 2601 0.00755721765237516
2601 2602 -6.06929330558716e-10
2602 2601 -4.11128320041546e-12
2602 2602 0.00822717712936565
2603 798 -0.00043501492439917
2603 799 -0.00666666666666667
2603 2603 0.0092168762887663
2603 2604 -0.0006228725363602
2604 798 -0.000435084930037499
2604 2603 -0.000671540836655633
2604 2604 0.00926585804143926
2605 807 -0.00666666666666667
2605 808 -0.000160003730031608
2605 2605 0.00755629729934282
2605 2606 -1.90258328993088e-06
2606 808 -0.000162843762344304
2606 2605 -1.45267310755073e-08
2606 2606 0.00822792910352069
2607 809 -0.00666666666666667
2607 810 -0.000434777562089548
2607 2607 0.00921591582112041
2607 2608 -0.000623871210047873
2607 2610 0.0
2608 810 -0.000435332391680562
2608 2607 -0.000672220540750254
2608 2608 0.00926674480647901
2609 808 -0.00666666666666667
2609 811 -0.000373644623812598
2609 2609 0.00857592364724168
2609 2610 -0.000290023568862184
2610 808 0.0
2610 809 -0.00666666666666667
2610 810 0.0
2610 811 -0.000492026351508191
2610 814 0.0
2610 2607 0.0
2610 2609 -0.000270377370428809
2610 2610 0.00893922648671382
2611 811 -0.00666666666666667
2611 812 -0.000200001267691484
2611 2611 0.00807402136254167
2611 2612 -0.000315285081402617
2612 812 -0.000627372315610023
2612 2611 -0.000163000017519031
2612 2612 0.00895741238458851
2613 2613 0.00822721524635506
2613 2614 -3.89036333446409e-12
2614 812 -0.00666666666666667
2614 2613 -5.64092130791223e-10
2614 2614 0.00758050134032871
2615 812 -0.00666666666666667
2615 2615 0.00758050134032871
2615 2616 -5.64092130737013e-10
2616 2615 -3.89036336156914e-12
2616 2616 0.00822721524635506
2617 810 -0.00666666666666667
2617 814 -0.000161423310638647
2617 2617 0.00755675930893082
2617 2618 -6.14516634575204e-10
2618 814 -0.000161424181737265
2618 2617 -4.16186344820719e-12
2618 2618 0.00822717669815483
2619 776 -0.000435111019942127
2619 2619 0.00926583720685854
2619 2620 -0.000671494763562758
2620 776 -0.000434989904848891
2620 814 -0.00666666666666667
2620 2619 -0.000622864535863297
2620 2620 0.00921666478489411
2621 814 -0.00666666666666667
2621 815 -0.000434989904918348
2621 2621 0.00921666821285588
2621 2622 -0.000622867800074396
2622 815 -0.0004351110198498
2622 2621 -0.000671498187612959
2622 2622 0.00926584079408091
2623 817 -0.00666666666666667
2623 818 -0.000161423305232432
2623 2623 0.00755721765249594
2623 2624 -6.22111733862203e-10
2623 4605 0.0
2624 818 -0.00016142418714348
2624 2623 -4.21568916772847e-12
2624 2624 0.00822717714450407
2625 819 -0.00666666666666667
2625 820 -0.000434980660161396
2625 2625 0.00921658395702201
2625 2626 -0.000622858755959619
2625 2628 0.0
2626 820 -0.000435120659992681
2626 2625 -0.000671474812089471
2626 2626 0.00926582670497335
2627 818 -0.00666666666666667
2627 820 0.0
2627 821 -0.000434980641780947
2627 2627 0.00921598448078023
2627 2628 -0.000622806887499908
2628 819 -0.00666666666666667
2628 820 0.0
2628 821 -0.000435120677607716
2628 2625 0.0
2628 2627 -0.00067135361319923
2628 2628 0.00926515741657526
2629 776 -0.000435014811994716
2629 822 -0.00666666666666667
2629 2629 0.00921687738713832
2629 2630 -0.000622874555977533
2630 776 -0.000435085047244578
2630 2629 -0.000671542772385395
2630 2630 0.00926586008373841
2631 820 -0.00666666666666667
2631 823 -0.000161423313389182
2631 2631 0.00755721766011262
2631 2632 -6.10674307777927e-10
2632 823 -0.00016142417898673
2632 2631 -4.13703259232342e-12
2632 2632 0.00822717713673958
2633 815 -0.000435084787576991
2633 2633 0.0092658638991317
2633 2634 -0.000671546676151165
2634 815 -0.000435015060995396
2634 823 -0.00666666666666667
2634 2633 -0.000622877920215036
2634 2634 0.00921688293990953
2635 822 -0.000161423743725423
2635 823 -0.00666666666666667
2635 2635 0.00822694462180378
2635 2636 -4.04406184767255e-10
2636 822 -0.00016142374865049
2636 2635 -4.00864471382897e-10
2636 2636 0.00822717693084429
2637 815 -0.000435015087313979
2637 825 -0.00666666666666667
2637 2637 0.00921688316448704
2637 2638 -0.000622877930792391
2638 815 -0.000435084760132168
2638 2637 -0.000671546726860146
2638 2638 0.00926586392317507
2639 821 -0.00666666666666667
2639 826 -0.000161423313373899
2639 2639 0.00755721765072739
2639 2640 -6.1069568535223e-10
2640 826 -0.000161424179002014
2640 2639 -4.13717992975033e-12
2640 2640 0.00822717713417366
2641 776 -0.000435084986246467
2641 2641 0.00926586013716026
2641 2642 -0.000671542885086807
2642 776 -0.000435014870489667
2642 826 -0.00666666666666667
2642 2641 -0.00062287457948541
2642 2642 0.00921687788626174
2643 825 -0.000161423743711796
2643 826 -0.00666666666666667
2643 2643 0.008226943321695
2643 2644 -4.04387092386443e-10
2644 825 -0.000161423748664116
2644 2643 -4.00825748326332e-10
2644 2644 0.00822717693284893
2645 828 -0.00666666666666667
2645 2645 0.00755853528834143
2645 2646 -6.09517161481544e-10
2646 2645 -4.10907237024926e-12
2646 2646 0.00822725835180459
2647 2647 0.00822699835769964
2647 2648 -5.52503881834808e-12
2648 829 -0.00666666666666667
2648 2647 -2.2976914638995e-10
2648 2648 0.00815277410257971
2649 828 -0.000422563580131969
2649 829 -0.00666666666666667
2649 2649 0.00911683250971203
2649 2650 -0.000614761191522313
2650 828 -0.00044799862421619
2650 2649 -0.0006451077758217
2650 2650 0.00925173111512469
2651 815 -0.00666666666666667
2651 832 -0.000161423296248432
2651 2651 0.0075572153735454
2651 2652 -6.34707558119434e-10
2652 832 -0.00016142419612748
2652 2651 -4.30232887169997e-12
2652 2652 0.00822717705664591
2653 830 -0.00043489989638744
2653 833 -0.00666666666666667
2653 2653 0.00921541718621201
2653 2654 -0.000622361407616724
2653 2656 0.0
2654 830 -0.00043520488141259
2654 2653 -0.000670832821851848
2654 2654 0.00926525297162918
2655 832 -0.00666666666666667
2655 834 -0.000434950331803641
2655 2655 0.00921463310923579
2655 2656 -0.000622355873608441
2656 830 0.0
2656 832 0.0
2656 833 -0.00666666666666667
2656 834 -0.000435152283781921
2656 2653 0.0
2656 2655 -0.000670757573524478
2656 2656 0.00926393658622583
2657 834 -0.00666666666666667
2657 835 -0.000161420475113085
2657 2657 0.00755738308036762
2657 2658 -4.57847648587294e-09
2658 835 -0.000161427017262827
2658 2657 -3.18241338988658e-11
2658 2658 0.00822724281267098
2659 2659 0.00822699408685816
2659 2660 -5.69261988092565e-12
2660 835 -0.00666666666666667
2660 2659 -2.28425571392821e-10
2660 2660 0.00815841787771751
2661 835 -0.00666666666666667
2661 837 -0.000423620518083849
2661 2661 0.00912452759981859
2661 2662 -0.000615294574958452
2662 837 -0.00044690816470541
2662 2661 -0.000647134253481845
2662 2662 0.00925273449425226
2663 837 -0.00666666666666667
2663 2663 0.00755849436233489
2663 2664 -6.09618023537668e-10
2664 2663 -4.10955652784976e-12
2664 2664 0.0082272585623787
2665 829 -0.000161419817025353
2665 830 -0.00666666666666667
2665 2665 0.00755742123690941
2665 2666 -5.49637808756438e-09
2666 829 -0.000161427675350559
2666 2665 -3.82880604873281e-11
2666 2666 0.00822725133924324
2667 838 -0.00666666666666667
2667 839 3.97192681545031e-05
2667 2667 0.00758487998779588
2667 2668 -0.000271306402284293
2668 839 -0.000727400690543495
2668 2667 -2.77297390858832e-05
2668 2668 0.00895289512037132
2669 840 -0.00666666666666667
2669 841 -0.000435443110746613
2669 2669 0.00927049381409235
2669 2670 -0.000673646028178072
2669 2672 0.0
2670 841 -0.000434671360314162
2670 2669 -0.000627195150452745
2670 2670 0.00921927160555094
2671 839 -0.00666666666666667
2671 842 -0.000111660192932874
2671 2671 0.00770469465208874
2671 2672 -6.70683422235065e-05
2672 839 0.0
2672 840 -0.00666666666666667
2672 841 0.0
2672 842 -0.000576021229456118
2672 845 0.0
2672 2669 0.0
2672 2671 -3.41374299192897e-06
2672 2672 0.00878401693892019
2673 842 -0.00666666666666667
2673 843 -0.000334801614937765
2673 2673 0.00868845376516133
2673 2674 -0.000561455535102077
2674 843 -0.000534674356904565
2674 2673 -0.000487445861240936
2674 2674 0.00917876821200272
2675 2675 0.00822724019224539
2675 2676 -3.99393158957938e-12
2676 843 -0.00666666666666667
2676 2675 -5.86236000132448e-10
2676 2676 0.0075694227572562
2677 843 -0.00666666666666667
2677 2677 0.00756938783599864
2677 2678 -5.8227644078184e-10
2678 2677 -3.98490214171924e-12
2678 2678 0.00822717710481314
2679 841 -0.00666666666666667
2679 845 -0.000161423299320898
2679 2679 0.00755638508915527
2679 2680 -6.30372622134121e-10
2680 845 -0.000161424193055015
2680 2679 -4.26955665163783e-12
2680 2680 0.00822717559459638
2681 807 -0.0004352489140877
2681 2681 0.00926770146162826
2681 2682 -0.000673347124029987
2682 807 -0.000434857618270111
2682 845 -0.00666666666666667
2682 2681 -0.000624846566023037
2682 2682 0.00921745137510698
2683 845 -0.00666666666666667
2683 846 -0.000161423735549573
2683 2683 0.00822590307436798
2683 2684 -3.17267646597123e-10
2684 846 -0.000161423756826339
2684 2683 -3.01540515380111e-10
2684 2684 0.00822720896113242
2685 848 -0.00666666666666667
2685 849 -0.000435014942481457
2685 2685 0.00921687621618138
2685 2686 -0.000622872302682173
2686 849 -0.000435084911182311
2686 2685 -0.000671540621958419
2686 2686 0.00926585782249827
2687 850 -0.00666666666666667
2687 851 -0.000161423360190818
2687 2687 0.00759121275229192
2687 2688 -5.45969305880644e-10
2687 2690 0.0
2688 851 -0.000161424132185094
2688 2687 -3.81774206802719e-12
2688 2688 0.00822717722380157
2689 849 -0.00666666666666667
2689 852 -0.000161423118220566
2689 2689 0.00755721776450154
2689 2690 -6.95766372139393e-10
2690 849 0.0
2690 850 -0.00666666666666667
2690 851 0.0
2690 852 -0.000161424374155346
2690 854 0.0
2690 2687 0.0
2690 2689 -1.25637203248047e-11
2690 2690 0.00759121342784059
2691 807 -0.000434883815525587
2691 853 -0.00666666666666667
2691 2691 0.00921767423501631
2691 2692 -0.000624857046910582
2692 807 -0.00043522160506023
2692 2691 -0.000673397510119871
2692 2692 0.00926772529095948
2693 851 -0.00666666666666667
2693 854 -0.000435023979094175
2693 2693 0.00921682237061273
2693 2694 -0.0006227372213864
2694 854 -0.000435075488205579
2694 2693 -0.00067141433050357
2694 2694 0.00926573013279861
2695 846 -0.000161424083758228
2695 2695 0.00822720912015354
2695 2696 -3.21987108658194e-12
2696 846 -0.000161423408617685
2696 854 -0.00666666666666667
2696 2695 -4.78141451603002e-10
2696 2696 0.00755727832217645
2697 853 -0.000161423302756024
2697 854 -0.00666666666666667
2697 2697 0.00755727582940845
2697 2698 -6.2558479405925e-10
2698 853 -0.000161424189619888
2698 2697 -4.23979678728262e-12
2698 2698 0.00822717479197864
2699 846 -0.000161423408591031
2699 856 -0.00666666666666667
2699 2699 0.00755725620859342
2699 2700 -4.78178423362356e-10
2700 846 -0.000161424083784881
2700 2699 -3.22006454574526e-12
2700 2700 0.00822720912019037
2701 852 -0.00666666666666667
2701 857 -0.000161423308725767
2701 2701 0.00755721533834741
2701 2702 -6.17212851806125e-10
2702 857 -0.000161424183650145
2702 2701 -4.18199544479784e-12
2702 2702 0.00822717573520462
2703 807 -0.000435144012464389
2703 2703 0.00926779361315555
2703 2704 -0.000673540811812492
2704 807 -0.000434958245913406
2704 857 -0.00666666666666667
2704 2703 -0.000624886867600672
2704 2704 0.00921830845677283
2705 856 -0.000434958189050956
2705 857 -0.00666666666666667
2705 2705 0.00921631021319618
2705 2706 -0.000622763518227145
2706 856 -0.000435144092591556
2706 2705 -0.000671342130464457
2706 2706 0.00926572086598698
2707 859 -0.00666666666666667
2707 2707 0.00755741246850622
2707 2708 -6.06515170668247e-10
2708 2707 -4.10910644194979e-12
2708 2708 0.00822717712895316
2709 2709 0.00822711877443556
2709 2710 -7.74169806703297e-12
2710 860 -0.00666666666666667
2710 2709 -2.22069534738638e-10
2710 2710 0.00819168186272309
2711 859 -0.000429527300766953
2711 860 -0.00666666666666667
2711 2711 0.00917151071300196
2711 2712 -0.000620192759941485
2712 859 -0.000440793399874087
2712 2711 -0.000660635211420094
2712 2712 0.00926043761605101
2713 846 -0.00666666666666667
2713 863 -0.000436533664255523
2713 2713 0.00924569487162927
2713 2714 -0.000641341627123363
2714 863 -0.000433624016339188
2714 2713 -0.000602675681812971
2714 2714 0.0091904969781915
2715 861 -0.000372135275695886
2715 864 -0.00666666666666667
2715 2715 0.00884119022200594
2715 2716 -0.000597865634330268
2715 2718 0.0
2716 861 -0.000498733752802194
2716 2715 -0.000565196699593391
2716 2716 0.00921780464690036
2717 863 -0.00666666666666667
2717 865 3.78159457419297e-05
2717 2717 0.00761083369281827
2717 2718 -0.000269827347276449
2718 861 0.0
2718 863 0.0
2718 864 -0.00666666666666667
2718 865 -0.000725497368130921
2718 2715 0.0
2718 2717 -4.16350633852817e-05
2718 2718 0.00866009136742812
2719 865 -0.00666666666666667
2719 866 -9.81956570690173e-05
2719 2719 0.00760092331739826
2719 2720 -8.38256824281413e-05
2720 866 -0.000589485765319974
2720 2719 -3.20930758282651e-06
2720 2720 0.00879776792041752
2721 2721 0.00822717682684741
2721 2722 -3.49301427021029e-12
2722 866 -0.00666666666666667
2722 2721 -3.0318728552863e-10
2722 2722 0.00790044609360178
2723 866 -0.00666666666666667
2723 868 -0.000333702074783927
2723 2723 0.00871084858846606
2723 2724 -0.000588085060255285
2724 868 -0.000536013663819404
2724 2723 -0.000512295469801527
2724 2724 0.00920289209649227
2725 868 -0.00666666666666667
2725 2725 0.00755933306797651
2725 2726 -6.07789044576714e-10
2726 2725 -4.10021685751259e-12
2726 2726 0.00822725774217296
2727 860 -0.000161422576318977
2727 861 -0.00666666666666667
2727 2727 0.00755666327531444
2727 2728 -1.6404963552712e-09
2728 860 -0.000161424916056935
2728 2727 -1.12741283804007e-11
2728 2728 0.00822716577111988
2729 869 -0.00666666666666667
2729 870 -0.000160003888239781
2729 2729 0.00755629731334936
2729 2730 -1.90237271058338e-06
2730 870 -0.000162843604136131
2730 2729 -1.45250995281191e-08
2730 2730 0.00822792892080569
2731 871 -0.00666666666666667
2731 872 -0.000434778992070864
2731 2731 0.00921590961843673
2731 2732 -0.000623850865689214
2731 2734 0.0
2732 872 -0.000435330901615854
2732 2731 -0.000672201796129614
2732 2732 0.00926672719210277
2733 870 -0.00666666666666667
2733 873 -0.000373643453136776
2733 2733 0.00857592608264678
2733 2734 -0.000290024881064322
2734 870 0.0
2734 871 -0.00666666666666667
2734 872 0.0
2734 873 -0.000492027450061673
2734 2731 0.0
2734 2733 -0.000270377852525331
2734 2734 0.00893923985221735
2735 873 -0.00666666666666667
2735 874 -0.000200001595110305
2735 2735 0.0080740220958604
2735 2736 -0.000315285148839636
2736 874 -0.000627372161158813
2736 2735 -0.000163000191627275
2736 2736 0.00895741240163454
2737 2737 0.00822721524635563
2737 2738 -3.89036326356696e-12
2738 874 -0.00666666666666667
2738 2737 -5.64092115954155e-10
2738 2738 0.00758050134875735
2739 874 -0.00666666666666667
2739 2739 0.00758050134875735
2739 2740 -5.64092115791525e-10
2740 2739 -3.89036331777706e-12
2740 2740 0.00822721524635563
2741 872 -0.00666666666666667
2741 876 -0.000161423322269463
2741 2741 0.00755676875879614
2741 2742 -5.98672124761887e-10
2742 876 -0.000161424170106449
2742 2741 -4.04977791069632e-12
2742 2742 0.00822718791318045
2743 838 -0.000434976564103408
2743 2743 0.0092178254413955
2743 2744 -0.000623720661515962
2744 838 -0.000435124935063587
2744 876 -0.00666666666666667
2744 2743 -0.000671763596290096
2744 2744 0.00926678721368117
2745 876 -0.00666666666666667
2745 877 -0.000435124963867027
2745 2745 0.00926637336566514
2745 2746 -0.000671597031953381
2746 877 -0.000434976534547967
2746 2745 -0.000623334437794026
2746 2746 0.00921719062426288
2747 879 -0.00666666666666667
2747 880 -0.000161423305428732
2747 2747 0.00755721778425399
2747 2748 -6.21841414828085e-10
2748 880 -0.00016142418694718
2748 2747 -4.21379617299168e-12
2748 2748 0.00822717725632217
2749 881 -0.00666666666666667
2749 882 -0.00043498264129322
2749 2749 0.00921659997236583
2749 2750 -0.000622858547503055
2749 2752 0.0
2750 882 -0.000435118594151826
2750 2749 -0.000671477595984673
2750 2750 0.00926582760612121
2751 880 -0.00666666666666667
2751 882 0.0
2751 883 -0.000434980942275246
2751 2751 0.0092159835172069
2751 2752 -0.000622784365706615
2752 881 -0.00666666666666667
2752 882 0.0
2752 883 -0.000435120364500525
2752 2749 0.0
2752 2751 -0.000671332921939591
2752 2752 0.00926515556356406
2753 838 -0.000435182102606196
2753 884 -0.00666666666666667
2753 2753 0.00926715723864761
2753 2754 -0.000671761223543175
2754 838 -0.000434921744344359
2754 2753 -0.000624060476111682
2754 2754 0.00921784490296891
2755 882 -0.00666666666666667
2755 885 -0.000161423313958423
2755 2755 0.00755721810753046
2755 2756 -6.09894095762124e-10
2756 885 -0.000161424178417489
2756 2755 -4.131544537388e-12
2756 2756 0.00822717754580638
2757 877 -0.000435077880745983
2757 2757 0.00926585891365665
2757 2758 -0.000671546446351377
2758 877 -0.000435021684411966
2758 885 -0.00666666666666667
2758 2757 -0.00062286789421365
2758 2758 0.00921692872689686
2759 884 -0.000161423744276026
2759 885 -0.00666666666666667
2759 2759 0.00822700721314235
2759 2760 -3.91285012821627e-10
2760 884 -0.000161423748099887
2760 2759 -3.88276097998368e-10
2760 2760 0.0082271935981427
2761 877 -0.000435028125198069
2761 887 -0.00666666666666667
2761 2761 0.00921698374849288
2761 2762 -0.00062287048734279
2762 877 -0.000435071164272798
2762 2761 -0.000671558867523572
2762 2762 0.009265864857395
2763 883 -0.00666666666666667
2763 888 -0.000161423323759015
2763 2763 0.00755722860343106
2763 2764 -5.96713959736372e-10
2764 888 -0.000161424168616897
2764 2763 -4.03706320675835e-12
2764 2764 0.00822719066745875
2765 838 -0.000434970473518195
2765 2765 0.00921782856828712
2765 2766 -0.00062375908005906
2766 838 -0.00043513128653454
2766 888 -0.00666666666666667
2766 2765 -0.000671763646252385
2766 2766 0.00926682896934285
2767 887 -0.000161423752315999
2767 888 -0.00666666666666667
2767 2767 0.00822774275548648
2767 2768 -4.03616558608119e-10
2768 887 -0.000161423740059913
2768 2767 -4.21612183862497e-10
2768 2768 0.00822717766773221
2769 890 -0.00666666666666667
2769 2769 0.0075585352884313
2769 2770 -6.09517161291164e-10
2770 2769 -4.10907228794314e-12
2770 2770 0.0082272583518046
2771 2771 0.00822699835770025
2771 2772 -5.52503936541298e-12
2772 891 -0.00666666666666667
2772 2771 -2.29769141627132e-10
2772 2772 0.0081527741222207
2773 890 -0.000422563583786935
2773 891 -0.00666666666666667
2773 2773 0.00911683253562738
2773 2774 -0.000614761192822428
2774 890 -0.000447998620447711
2774 2773 -0.000645107782251851
2774 2774 0.00925173111806255
2775 877 -0.00666666666666667
2775 894 -0.000161423296358576
2775 2775 0.00755722059760234
2775 2776 -6.34553335781814e-10
2776 894 -0.000161424196017336
2776 2775 -4.3012863340146e-12
2776 2776 0.00822717711494817
2777 892 -0.000434900113529982
2777 895 -0.00666666666666667
2777 2777 0.00921541899333368
2777 2778 -0.000622361445147185
2777 2780 0.0
2778 892 -0.000435204654991786
2778 2777 -0.000670833188949692
2778 2778 0.00926525312625075
2779 894 -0.00666666666666667
2779 896 -0.000434951272976298
2779 2779 0.0092146428870468
2779 2780 -0.000622356277676372
2780 892 0.0
2780 894 0.0
2780 895 -0.00666666666666667
2780 896 -0.000435151302408671
2780 2777 0.0
2780 2779 -0.00067075962475825
2780 2780 0.00926393943568543
2781 896 -0.00666666666666667
2781 897 -0.000161420475119938
2781 2781 0.00755738313912261
2781 2782 -4.57846708968348e-09
2782 897 -0.000161427017255975
2782 2781 -3.18240683403241e-11
2782 2782 0.00822724281302687
2783 2783 0.00822699408685965
2783 2784 -5.69262164845435e-12
2784 897 -0.00666666666666667
2784 2783 -2.28425558756177e-10
2784 2784 0.00815841793296117
2785 897 -0.00666666666666667
2785 899 -0.000423620528167419
2785 2785 0.00912452767230425
2785 2786 -0.000615294578525974
2786 899 -0.000446908154298356
2786 2785 -0.000647134271290312
2786 2786 0.00925273450239525
2787 899 -0.00666666666666667
2787 2787 0.00755849436258761
2787 2788 -6.09618023001795e-10
2788 2787 -4.1095565250605e-12
2788 2788 0.00822725856237871
2789 891 -0.000161419817028325
2789 892 -0.00666666666666667
2789 2789 0.00755742125771192
2789 2790 -5.49637401523144e-09
2790 891 -0.000161427675347588
2790 2789 -3.82880319923928e-11
2790 2790 0.00822725133937288
2791 900 -0.00666666666666667
2791 901 3.97284147640295e-05
2791 2791 0.00758486654085705
2791 2792 -0.000271318851749607
2792 901 -0.000727409837153021
2792 2791 -2.77312982546554e-05
2792 2792 0.0089529055530631
2793 902 -0.00666666666666667
2793 903 -0.000435443064032225
2793 2793 0.00927049355419245
2793 2794 -0.00067364607333901
2793 2796 0.0
2794 903 -0.000434671405121812
2794 2793 -0.000627194917416272
2794 2794 0.00921927163146946
2795 901 -0.00666666666666667
2795 904 -0.000111659649866176
2795 2795 0.00770469126010004
2795 2796 -6.70688877278153e-05
2796 901 0.0
2796 902 -0.00666666666666667
2796 903 0.0
2796 904 -0.000576021772522815
2796 907 0.0
2796 2793 0.0
2796 2795 -3.41374404077267e-06
2796 2796 0.00878401724365305
2797 904 -0.00666666666666667
2797 905 -0.00033480125661166
2797 2797 0.00868845253580061
2797 2798 -0.000561455436984957
2798 905 -0.000534674694551014
2798 2797 -0.000487445397507601
2798 2798 0.00917876806761751
2799 2799 0.00822724019224498
2799 2800 -3.99393167827312e-12
2800 905 -0.00666666666666667
2800 2799 -5.8623601799428e-10
2800 2800 0.00756942274805355
2801 905 -0.00666666666666667
2801 2801 0.00756938782679773
2801 2802 -5.8227645852703e-10
2802 2801 -3.98490217607864e-12
2802 2802 0.00822717710481316
2803 903 -0.00666666666666667
2803 907 -0.0001614232993209
2803 2803 0.00755638507164866
2803 2804 -6.30372617736862e-10
2804 907 -0.000161424193055012
2804 2803 -4.26955655883516e-12
2804 2804 0.00822717559470338
2805 869 -0.000435248913863459
2805 2805 0.00926770143129382
2805 2806 -0.00067334709044947
2806 869 -0.00043485761848589
2806 907 -0.00666666666666667
2806 2805 -0.000624846533095091
2806 2806 0.0092174513473777
2807 907 -0.00666666666666667
2807 908 -0.000161423735549587
2807 2807 0.00822590307607582
2807 2808 -3.17267642602592e-10
2808 908 -0.000161423756826326
2808 2807 -3.01540531002169e-10
2808 2808 0.0082272089611359
2809 910 -0.00666666666666667
2809 911 -0.000435014942481819
2809 2809 0.0092168762161805
2809 2810 -0.000622872302677949
2810 911 -0.000435084911181933
2810 2809 -0.000671540621954609
2810 2810 0.0092658578224945
2811 912 -0.00666666666666667
2811 913 -0.000161423360190819
2811 2811 0.00759121275229851
2811 2812 -5.45969304848884e-10
2811 2814 0.0
2812 913 -0.000161424132185093
2812 2811 -3.81774206063631e-12
2812 2812 0.00822717722380189
2813 911 -0.00666666666666667
2813 913 0.0
2813 914 -0.00016142311822058
2813 2813 0.00755721776450365
2813 2814 -6.95766357075677e-10
2814 912 -0.00666666666666667
2814 913 0.0
2814 914 -0.000161424374155332
2814 2811 0.0
2814 2813 -1.2563720024876e-11
2814 2814 0.00759121342784748
2815 869 -0.00043488381807546
2815 915 -0.00666666666666667
2815 2815 0.00921767422715923
2815 2816 -0.000624857014917887
2816 869 -0.000435221602402712
2816 2815 -0.000673397481031394
2816 2816 0.00926772526275846
2817 913 -0.00666666666666667
2817 916 -0.000435023979104199
2817 2817 0.00921682237057486
2817 2818 -0.000622737221255021
2818 916 -0.000435075488195125
2818 2817 -0.000671414330383147
2818 2818 0.00926573013268001
2819 908 -0.000161424083758224
2819 2819 0.00822720912015702
2819 2820 -3.21987104749231e-12
2820 908 -0.000161423408617689
2820 916 -0.00666666666666667
2820 2819 -4.7814144590111e-10
2820 2820 0.00755727832223315
2821 915 -0.00016142330275624
2821 916 -0.00666666666666667
2821 2821 0.00755727582947163
2821 2822 -6.25584490453963e-10
2822 915 -0.000161424189619672
2822 2821 -4.23979469854184e-12
2822 2822 0.00822717479206994
2823 908 -0.000161423408591035
2823 918 -0.00666666666666667
2823 2823 0.00755725620865008
2823 2824 -4.78178417741383e-10
2824 908 -0.000161424083784877
2824 2823 -3.22006453375859e-12
2824 2824 0.00822720912019385
2825 914 -0.00666666666666667
2825 919 -0.000161423308725907
2825 2825 0.00755721533840932
2825 2826 -6.17212655483738e-10
2826 919 -0.000161424183650005
2826 2825 -4.18199409455997e-12
2826 2826 0.00822717573526373
2827 869 -0.000435144010721808
2827 2827 0.00926779358414436
2827 2828 -0.000673540781035909
2828 869 -0.000434958247585231
2828 919 -0.00666666666666667
2828 2827 -0.000624886835257608
2828 2828 0.00921830844145679
2829 918 -0.0004349581907246
2829 919 -0.00666666666666667
2829 2829 0.00921631022735146
2829 2830 -0.000622763518765495
2830 918 -0.000435144090846367
2830 2829 -0.000671342133550577
2830 2830 0.009265720867399
2831 921 -0.00666666666666667
2831 2831 0.00755741246850622
2831 2832 -6.06515170668247e-10
2832 2831 -4.10910644194979e-12
2832 2832 0.00822717712895316
2833 2833 0.00822711877443556
2833 2834 -7.74169806704297e-12
2834 922 -0.00666666666666667
2834 2833 -2.22069534792841e-10
2834 2834 0.00819168186272317
2835 921 -0.000429527300766966
2835 922 -0.00666666666666667
2835 2835 0.00917151071300206
2835 2836 -0.00062019275994149
2836 921 -0.000440793399874074
2836 2835 -0.000660635211420117
2836 2836 0.00926043761605102
2837 908 -0.00666666666666667
2837 925 -0.000436533664324921
2837 2837 0.00924569487205297
2837 2838 -0.000641341627119159
2838 925 -0.000433624016272548
2838 2837 -0.000602675682168615
2838 2838 0.00919049697820984
2839 923 -0.000372135275696199
2839 926 -0.00666666666666667
2839 2839 0.00884119022200716
2839 2840 -0.000597865634330209
2839 2842 0.0
2840 923 -0.000498733752801886
2840 2839 -0.000565196699593686
2840 2840 0.00921780464690041
2841 925 -0.00666666666666667
2841 927 3.78159457400616e-05
2841 2841 0.00761083369282182
2841 2842 -0.000269827347274098
2842 923 0.0
2842 925 0.0
2842 926 -0.00666666666666667
2842 927 -0.000725497368129053
2842 2839 0.0
2842 2841 -4.16350633850501e-05
2842 2842 0.0086600913674269
2843 927 -0.00666666666666667
2843 928 -9.81956570691642e-05
2843 2843 0.00760092331739869
2843 2844 -8.38256824279561e-05
2844 928 -0.000589485765319827
2844 2843 -3.20930758282242e-06
2844 2844 0.00879776792041735
2845 2845 0.00822717682684741
2845 2846 -3.49301427021062e-12
2846 928 -0.00666666666666667
2846 2845 -3.03187285555689e-10
2846 2846 0.0079004460936019
2847 928 -0.00666666666666667
2847 930 -0.000333702074783997
2847 2847 0.00871084858846631
2847 2848 -0.000588085060255303
2848 930 -0.000536013663819338
2848 2847 -0.000512295469801619
2848 2848 0.0092028920964923
2849 930 -0.00666666666666667
2849 2849 0.00755933306797651
2849 2850 -6.0778904457672e-10
2850 2849 -4.10021674909242e-12
2850 2850 0.00822725774217296
2851 922 -0.000161422576318977
2851 923 -0.00666666666666667
2851 2851 0.00755666327531452
2851 2852 -1.64049635526677e-09
2852 922 -0.000161424916056935
2852 2851 -1.12741284887907e-11
2852 2852 0.00822716577111988
2853 931 -0.00666666666666667
2853 932 -0.000161423306124255
2853 2853 0.00755721681642354
2853 2854 -6.20861048269697e-10
2854 932 -0.000161424186251657
2854 2853 -4.20708647347467e-12
2854 2854 0.00822717666428922
2855 933 -0.00666666666666667
2855 934 -0.000434985228537089
2855 2855 0.00921662843024339
2855 2856 -0.000622863607135337
2855 2858 0.0
2856 934 -0.000435115896247923
2856 2855 -0.000671487062718633
2856 2856 0.00926583682639911
2857 932 -0.00666666666666667
2857 935 -0.000434987985656363
2857 2857 0.00921549100307902
2857 2858 -0.000622228101134277
2858 932 0.0
2858 933 -0.00666666666666667
2858 934 0.0
2858 935 -0.000435113023678724
2858 2855 0.0
2858 2857 -0.000670764254703717
2858 2858 0.00926458636134656
2859 935 -0.00666666666666667
2859 936 -0.000161410251962658
2859 2859 0.00755747465195114
2859 2860 -1.87762010463222e-08
2860 936 -0.000161437240413254
2860 2859 -1.32892288474877e-10
2860 2860 0.00822729692880195
2861 2861 0.00822701112868543
2861 2862 -4.81872285692391e-12
2862 936 -0.00666666666666667
2862 2861 -2.38165066447311e-10
2862 2862 0.00811743485472944
2863 936 -0.00666666666666667
2863 2863 0.00907030660461941
2863 2864 -0.000614711342014916
2864 2863 -0.000635289343114582
2864 2864 0.0092471209523428
2865 934 -0.00666666666666667
2865 938 -0.000161423293334831
2865 2865 0.00755721660010067
2865 2866 -6.39067222491723e-10
2866 938 -0.000161424199041081
2866 2865 -4.3304234487849e-12
2866 2866 0.00822718313255255
2867 900 -0.00043535447989022
2867 2867 0.00926610912903469
2867 2868 -0.000671125339170808
2868 900 -0.00043475641251302
2868 938 -0.00666666666666667
2868 2867 -0.000623064810739767
2868 2868 0.00921519637816756
2869 938 -0.00666666666666667
2869 939 -0.000161423172358815
2869 2869 0.00822475961254992
2869 2870 -1.14023574905161e-08
2870 939 -0.000161424320017097
2870 2869 -1.05963041200035e-08
2870 2870 0.00822673401751872
2871 941 -0.00666666666666667
2871 942 -0.000435014654010181
2871 2871 0.00921687888628672
2871 2872 -0.000622877304336513
2872 942 -0.00043508521197951
2872 2871 -0.000671545404567264
2872 2872 0.00926586291132955
2873 943 -0.00666666666666667
2873 944 -0.000161423349311524
2873 2873 0.00759120585643323
2873 2874 -5.61253610552619e-10
2873 2876 0.0
2874 944 -0.000161424143064388
2874 2873 -3.92634071196178e-12
2874 2874 0.00822717507317872
2875 942 -0.00666666666666667
2875 944 0.0
2875 945 -0.000161423122522292
2875 2875 0.00755721565731708
2875 2876 -6.91000750970319e-10
2876 943 -0.00666666666666667
2876 944 0.0
2876 945 -0.00016142436985362
2876 2873 0.0
2876 2875 -1.24778474586887e-11
2876 2876 0.00759120679480446
2877 900 -0.000435057879269063
2877 946 -0.00666666666666667
2877 2877 0.0092663910279418
2877 2878 -0.000671803857406816
2878 900 -0.00043504086500417
2878 2877 -0.000623356751569073
2878 2878 0.0092178384963548
2879 944 -0.00666666666666667
2879 947 -0.000434874122345711
2879 2879 0.00921760501413689
2879 2880 -0.000624855064858449
2880 947 -0.000435231709745513
2880 2879 -0.000673382235862111
2880 2880 0.00926773123149998
2881 939 -0.000161436491869936
2881 2881 0.00822674016833682
2881 2882 -1.25356963990057e-10
2882 939 -0.000161411000505976
2882 947 -0.00666666666666667
2882 2881 -1.76036669988993e-08
2882 2882 0.007556330795849
2883 946 -0.000161423317190227
2883 947 -0.00666666666666667
2883 2883 0.0075563644520954
2883 2884 -6.05978989258598e-10
2884 946 -0.000161424175185685
2884 2883 -4.09725503580782e-12
2884 2884 0.00822719229488561
2885 939 -0.000161411014301728
2885 949 -0.00666666666666667
2885 2885 0.00755662367990893
2885 2886 -1.75849783175383e-08
2886 939 -0.000161436478074184
2886 2885 -1.25254866802548e-10
2886 2886 0.00822674014969775
2887 945 -0.00666666666666667
2887 950 -0.000161423323773417
2887 2887 0.0075572265609078
2887 2888 -5.9657717189327e-10
2888 950 -0.000161424168602495
2888 2887 -4.03692298108516e-12
2888 2888 0.00822718795529438
2889 900 -0.000434966118570619
2889 2889 0.00921786254908987
2889 2890 -0.000623819803880377
2890 900 -0.000435135827690981
2890 950 -0.00666666666666667
2890 2889 -0.000671799805131304
2890 2890 0.00926689343860784
2891 949 -0.000435135825668647
2891 950 -0.00666666666666667
2891 2891 0.00926779304085995
2891 2892 -0.000672979588001651
2892 949 -0.000434966107095303
2892 2891 -0.000624694668192695
2892 2892 0.00921846396898064
2893 952 -0.00666666666666667
2893 2893 0.00894946699024213
2893 2894 -0.000606052261066109
2894 2893 -0.000600122097862237
2894 2894 0.00923126173183647
2895 2895 0.00822707325920853
2895 2896 -3.40850404729478e-12
2896 953 -0.00666666666666667
2896 2895 -4.39334748407924e-10
2896 2896 0.00767218067483432
2897 952 -0.000161142124363107
2897 953 -0.00666666666666667
2897 2897 0.00767185136575801
2897 2898 -3.9002826149208e-07
2898 952 -0.000161705368012805
2898 2897 -3.32821151740468e-09
2898 2898 0.00822779264793695
2899 939 -0.00666666666666667
2899 956 -0.000413943151144719
2899 2899 0.0088428686444459
2899 2900 -0.000385983334887199
2900 956 -0.000457074858319932
2900 2899 -0.000396957256272791
2900 2900 0.00902131707790925
2901 954 -0.000337126126111302
2901 957 -0.00666666666666667
2901 2901 0.00870515217458627
2901 2902 -0.000570346192985177
2901 2904 0.0
2902 954 -0.000532578756276378
2902 2901 -0.000498571990041084
2902 2902 0.00918907244525967
2903 956 -0.00666666666666667
2903 958 -0.000213567925484438
2903 2903 0.00801064459323599
2903 2904 -0.000280047589106464
2904 954 0.0
2904 956 0.0
2904 957 -0.00666666666666667
2904 958 -0.000614115947829843
2904 2901 0.0
2904 2903 -0.000151974252254838
2904 2904 0.00858275366599436
2905 958 -0.00666666666666667
2905 959 -0.000161422918075369
2905 2905 0.00755886084998397
2905 2906 -1.16699722701056e-09
2906 959 -0.000161424574300543
2906 2905 -7.97239446559356e-12
2906 2906 0.00822721467884345
2907 2907 0.00926072857339887
2907 2908 -0.000664187000217393
2908 959 -0.00666666666666667
2908 2907 -0.000621240348529511
2908 2908 0.00918478778839809
2909 959 -0.00666666666666667
2909 961 -0.000431322912949463
2909 2909 0.00918381835623783
2909 2910 -0.000618955328845968
2910 961 -0.000438929377851577
2910 2909 -0.000661965111513909
2910 2910 0.00925997826239694
2911 961 -0.00666666666666667
2911 2911 0.00755828330701809
2911 2912 -6.10057942551154e-10
2912 2911 -4.11187050494478e-12
2912 2912 0.00822725843300332
2913 953 4.64257778793151e-05
2913 954 -0.00666666666666667
2913 2913 0.00760168784361417
2913 2914 -0.000285598197078351
2914 953 -0.000734107200268307
2914 2913 -3.50264221860246e-05
2914 2914 0.0089612357480833
2915 962 -0.00666666666666667
2915 963 -0.000161423305232406
2915 2915 0.00755721765251989
2915 2916 -6.22111769806188e-10
2915 4899 0.0
2916 963 -0.000161424187143506
2916 2915 -4.21568927958496e-12
2916 2916 0.00822717714448987
2917 964 -0.00666666666666667
2917 965 -0.000434980660475907
2917 2917 0.00921658397588867
2917 2918 -0.00062285877188959
2917 2920 0.0
2918 965 -0.000435120659664608
2918 2917 -0.000671474829222034
2918 2918 0.00926582672216797
2919 963 -0.00666666666666667
2919 965 0.0
2919 966 -0.000434980641165363
2919 2919 0.00921598447351964
2919 2920 -0.000622806883477107
2920 964 -0.00666666666666667
2920 965 0.0
2920 966 -0.000435120678249643
2920 2917 0.0
2920 2919 -0.000671353608292524
2920 2920 0.00926515741405329
2921 966 -0.00666666666666667
2921 967 -0.000161423313471233
2921 2921 0.00755721765241602
2921 2922 -6.1055919409009e-10
2922 967 -0.000161424178904679
2922 2921 -4.13624146533983e-12
2922 2922 0.00822717713298094
2923 2923 0.00822717692676107
2923 2924 -3.98503994321098e-10
2924 967 -0.00666666666666667
2924 2923 -4.01916224683843e-10
2924 2924 0.00822695176184735
2925 967 -0.00666666666666667
2925 2925 0.00921688643859517
2925 2926 -0.000622873028246735
2926 2925 -0.000671543140262901
2926 2926 0.00926585914257953
2927 965 -0.00666666666666667
2927 969 -0.000161423313374075
2927 2927 0.00755721765317601
2927 2928 -6.1069543774243e-10
2928 969 -0.000161424179001837
2928 2927 -4.1371782905697e-12
2928 2928 0.00822717713403002
2929 931 -0.000435084983875554
2929 2929 0.00926585996691043
2929 2930 -0.000671542718462655
2930 931 -0.000435014872763852
2930 969 -0.00666666666666667
2930 2929 -0.000622874416570012
2930 2930 0.00921687774051402
2931 969 -0.00666666666666667
2931 970 -0.000161423743711892
2931 2931 0.00822694333429545
2931 2932 -4.0439920669885e-10
2932 970 -0.00016142374866402
2932 2931 -4.00838058665778e-10
2932 2932 0.008227176929285
2933 972 -0.00666666666666667
2933 973 -0.000435014924423208
2933 2933 0.00921687629883807
2933 2934 -0.000622872546234126
2933 4915 0.0
2934 973 -0.000435084930012397
2934 2933 -0.000671540846988837
2934 2934 0.00926585805175031
2935 974 -0.00666666666666667
2935 975 -0.000161423359539946
2935 2935 0.00759121249965894
2935 2936 -5.46878146458842e-10
2935 2938 0.0
2936 975 -0.000161424132835966
2936 2935 -3.8242391166182e-12
2936 2936 0.0082271770695613
2937 973 -0.00666666666666667
2937 975 0.0
2937 976 -0.000161423118849177
2937 2937 0.00755721766130181
2937 2938 -6.95070062425208e-10
2938 974 -0.00666666666666667
2938 975 0.0
2938 976 -0.000161424373526735
2938 2935 0.0
2938 2937 -1.25511345494908e-11
2938 2938 0.0075912131904445
2939 931 -0.000435014828662647
2939 977 -0.00666666666666667
2939 2939 0.00921687736420685
2939 2940 -0.000622874398846489
2940 931 -0.000435085029863971
2940 2939 -0.000671542633493043
2940 2940 0.00926585992663165
2941 975 -0.00666666666666667
2941 978 -0.000435014924689618
2941 2941 0.00921687629128858
2941 2942 -0.00062287253630105
2942 978 -0.000435084929734623
2942 2941 -0.000671540837058781
2942 2942 0.00926585804176803
2943 970 -0.000161424178997873
2943 2943 0.00822717713315264
2943 2944 -4.1371400285313e-12
2944 970 -0.000161423313378039
2944 978 -0.00666666666666667
2944 2943 -6.10689878464067e-10
2944 2944 0.00755721765707715
2945 977 -0.000161423313370653
2945 978 -0.00666666666666667
2945 2945 0.00755721765716044
2945 2946 -6.10700236970854e-10
2946 977 -0.000161424179005259
2946 2945 -4.13721119467013e-12
2946 2946 0.00822717713430984
2947 970 -0.000161423313378033
2947 980 -0.00666666666666667
2947 2947 0.00755721765270792
2947 2948 -6.10689887899547e-10
2948 970 -0.00016142417899788
2948 2947 -4.13714010482357e-12
2948 2948 0.00822717713315264
2949 976 -0.00666666666666667
2949 981 -0.000161423315568022
2949 2949 0.00755721765325862
2949 2950 -6.07618836657479e-10
2950 981 -0.000161424176807891
2950 2949 -4.11602396034762e-12
2950 2950 0.00822717713082904
2951 931 -0.000435055763684865
2951 2951 0.00926588559200256
2951 2952 -0.000671596715586649
2952 931 -0.000435042893498927
2952 981 -0.00666666666666667
2952 2951 -0.000622885679652955
2952 2952 0.00921711691727978
2953 980 -0.000435042893494948
2953 981 -0.00666666666666667
2953 2953 0.00921711503527408
2953 2954 -0.000622883788869599
2954 980 -0.000435055763690274
2954 2953 -0.000671594744907884
2954 2954 0.00926588363014569
2955 983 -0.00666666666666667
2955 2955 0.00921687630349791
2955 2956 -0.000622872550856052
2956 2955 -0.000671540851815855
2956 2956 0.00926585805656934
2957 2957 0.00822717712936564
2957 2958 -4.11128314877385e-12
2958 984 -0.00666666666666667
2958 2957 -6.06929320764279e-10
2958 2958 0.00755721765699139
2959 983 -0.000161423313378028
2959 984 -0.00666666666666667
2959 2959 0.00755721765701833
2959 2960 -6.10689894184596e-10
2960 983 -0.000161424178997884
2960 2959 -4.13714010896969e-12
2960 2960 0.00822717713311111
2961 970 -0.00666666666666667
2961 987 -0.000435014924505136
2961 2961 0.00921687629951207
2961 2962 -0.000622872546234028
2962 987 -0.000435084929926964
2962 2961 -0.000671540847113225
2962 2962 0.00926585805179963
2963 985 -0.000161423359539925
2963 988 -0.00666666666666667
2963 2963 0.00759121249955778
2963 2964 -5.46878175305287e-10
2963 2966 0.0
2964 985 -0.000161424132835987
2964 2963 -3.82423940240164e-12
2964 2964 0.00822717706955717
2965 987 -0.00666666666666667
2965 989 -0.000161423118848986
2965 2965 0.00755721766131254
2965 2966 -6.95070273739866e-10
2966 985 0.0
2966 987 0.0
2966 988 -0.00666666666666667
2966 989 -0.000161424373526926
2966 2963 0.0
2966 2965 -1.25511384896242e-11
2966 2966 0.00759121319033985
2967 989 -0.00666666666666667
2967 990 -0.000161423315571431
2967 2967 0.00755721765238263
2967 2968 -6.0761405487412e-10
2968 990 -0.000161424176804481
2968 2967 -4.11599097514774e-12
2968 2968 0.00822717713004762
2969 2969 0.00926588367541618
2969 2970 -0.000671594835876209
2970 990 -0.00666666666666667
2970 2969 -0.000622883811249193
2970 2970 0.00921711542242289
2971 990 -0.00666666666666667
2971 992 -0.000435042938363147
2971 2971 0.00921711541881105
2971 2972 -0.000622883807637388
2972 992 -0.000435055716900844
2972 2971 -0.000671594832109726
2972 2972 0.00926588367164974
2973 992 -0.00666666666666667
2973 2973 0.00755721765237517
2973 2974 -6.06929330558691e-10
2974 2973 -4.11128320041531e-12
2974 2974 0.00822717712936565
2975 984 -0.000435014924404768
2975 985 -0.00666666666666667
2975 2975 0.00921687628881387
2975 2976 -0.000622872536362237
2976 984 -0.000435084930031662
2976 2975 -0.000671540836666198
2976 2976 0.00926585804144417
2977 1 -0.0166666666666667
2977 2 -0.000435071410144034
2977 2977 0.0194633698669611
2977 2978 -0.00125613726459116
2978 2 -0.000435067418468867
2978 2977 -0.00118122796424918
2978 2978 0.0193884422615678
2979 2 -0.0166666666666667
2979 4 -0.000138286719937541
2979 2979 0.0172964744640675
2979 2980 -1.21305359387928e-06
2980 4 -0.000140229474977799
2980 2979 -2.39732978890832e-08
2980 2980 0.0178147059436198
2981 5 -0.000140229499401466
2981 2981 0.0178147059816576
2981 2982 -2.39739107040979e-08
2982 2 -0.0166666666666667
2982 5 -0.000138286695513873
2982 2981 -1.21308374397846e-06
2982 2982 0.0172964744651717
2983 5 -0.0166666666666667
2983 6 -0.000435063425289485
2983 999 0.0
2983 2983 0.0193848780140391
2983 2984 -0.00117767774816952
2984 6 -0.00043507549391443
2984 2983 -0.00125250859257348
2984 2984 0.0194597410164681
2985 6 -0.0166666666666667
2985 2985 0.0172969944943952
2985 2986 -7.55324935173565e-06
2986 7 -0.0166666666666667
2986 2985 -7.79115312058558e-08
2986 2986 0.0179004996941746
2987 7 -0.0166666666666667
2987 2987 0.017897699974892
2987 2988 -2.33628102655818e-07
2988 2987 -3.87667548978359e-06
2988 2988 0.0178135930268625
2989 4 -0.0166666666666667
2989 8 -0.000435064354014663
2989 2989 0.0193888089807053
2989 2990 -0.00118160505927794
2990 8 -0.000435074543616996
2990 2989 -0.00125652619301678
2990 2990 0.0194637572604987
2991 9 -0.00043477092553001
2991 10 -0.0166666666666667
2991 2991 0.0193943160872509
2991 2992 -0.00118838524744319
2991 3038 0.0
2992 9 -0.000435374516178397
2992 2991 -0.00126292016425918
2992 2992 0.0194704567784157
2993 11 -0.0166666666666667
2993 12 -0.000138286666946142
2993 1011 0.0
2993 2993 0.0172964393749101
2993 2994 -1.21310025861443e-06
2994 12 -0.000140229527969197
2994 2993 -2.3972637226779e-08
2994 2994 0.0178147059964809
2995 12 -0.0166666666666667
2995 14 -0.00043506834406627
2995 2995 0.0193887440338863
2995 2996 -0.00118152293796728
2996 14 -0.000435070463673477
2996 2995 -0.00125644950186008
2996 2996 0.0194636762447145
2997 15 -0.000139258124485676
2997 2997 0.0178144318724902
2997 2998 -9.33775488811804e-07
2998 12 -0.0166666666666667
2998 15 -0.000139258070429663
2998 2997 -9.33813955352833e-07
2998 2998 0.0178144292153939
2999 14 -0.0166666666666667
2999 17 -0.000138272576530863
2999 2999 0.0172964344581289
2999 3000 -1.23048280177751e-06
3000 17 -0.000140243618384476
3000 2999 -2.43260553268771e-08
3000 3000 0.0178147222203411
3001 9 -0.000434923678631289
3001 17 -0.0166666666666667
3001 3001 0.01939337247243
3001 3002 -0.00118819422876379
3002 9 -0.000435218350961854
3002 17 0.0
3002 18 -0.0166666666666667
3002 3001 -0.00126258834031118
3002 3002 0.0194685490108551
3002 3003 0.0
3003 16 -0.000434708406678658
3003 17 0.0
3003 18 -0.0166666666666667
3003 3002 0.0
3003 3003 0.019387240384246
3003 3004 -0.00118149517659289
3004 16 -0.000435438495815257
3004 3003 -0.00125578622091835
3004 3004 0.0194634742330272
3005 16 -0.0166666666666667
3005 3005 0.0172964350463348
3005 3006 -1.21308719330684e-06
3006 3005 -2.39721729446109e-08
3006 3006 0.0178147059846294
3007 15 -0.0166666666666667
3007 20 -0.00043506897078809
3007 3007 0.0193887901446232
3007 3008 -0.00118156624050173
3008 20 -0.000435069822829566
3008 3007 -0.00125649495627713
3008 3008 0.0194637211303592
3009 20 -0.0166666666666667
3009 3009 0.0172964137870021
3009 3010 -4.26824290648909e-07
3010 20 0.0
3010 21 -0.0166666666666667
3010 3009 -9.4728187737898e-09
3010 3010 0.0177495617930085
3010 3011 0.0
3011 19 -0.000138907408932723
3011 20 0.0
3011 21 -0.0166666666666667
3011 3010 0.0
3011 3011 0.0177491875365273
3011 3012 -5.22090189834258e-07
3012 19 -0.000139608785982616
3012 3011 -5.00657647124819e-08
3012 3012 0.017814017671102
3013 9 -0.000434767192010144
3013 19 -0.0166666666666667
3013 3013 0.0193943004566385
3013 3014 -0.00118838501644233
3014 9 -0.000435378332843076
3014 3013 -0.00126291331604962
3014 3014 0.0194704545970096
3015 23 -0.000436779536615917
3015 24 -0.0166666666666667
3015 3015 0.0194803294031692
3015 3016 -0.00126728096347564
3016 23 -0.00043339652545167
3016 3015 -0.00120221696823342
3016 3016 0.0194000952173805
3017 23 -0.0166666666666667
3017 3017 0.0172950455057521
3017 3018 -1.04309476531646e-06
3018 23 0.0
3018 25 -0.0166666666666667
3018 3017 -2.09695222919134e-08
3018 3018 0.0178040398390986
3018 3035 0.0
3019 22 -0.0166666666666667
3019 3019 0.017308628105064
3019 3020 -1.16921175397781e-06
3020 3019 -2.34055546331483e-08
3020 3020 0.0178149613334785
3021 9 -0.0166666666666667
3021 26 -0.000110342284848131
3021 3021 0.0172962556489167
3021 3022 -3.461863129776e-05
3022 26 -0.000562588969540807
3022 3021 -4.73446914579739e-06
3022 3022 0.0183333438873188
3023 24 -0.000138849239149728
3023 26 -0.0166666666666667
3023 3023 0.0176170424650436
3023 3024 -5.6775781508522e-07
3024 24 -0.000139666955765612
3024 3023 -2.46162966049733e-08
3024 3024 0.017814058818694
3025 28 -0.00014394796244845
3025 3025 0.0178223322459852
3025 3026 -2.94774223703716e-07
3026 26 -0.0166666666666667
3026 28 -0.00013456823246689
3026 3025 -6.81146904710235e-06
3026 3026 0.0176167018986788
3027 28 -0.0166666666666667
3027 29 -0.000344954211373242
3027 3027 0.0189193940368807
3027 3028 -0.00100548436568255
3028 29 -0.00052636472014512
3028 3027 -0.00094543787621023
3028 3028 0.0192537240725896
3029 29 -0.0166666666666667
3029 3029 0.0173199119819373
3029 3030 -1.23676172594727e-06
3030 29 0.0
3030 30 -0.0166666666666667
3030 31 0.0
3030 3029 -2.35984471741585e-08
3030 3030 0.0178172740172132
3031 30 -0.0166666666666667
3031 31 -0.000435940683599852
3031 3031 0.0194709389718317
3031 3032 -0.0012607416912184
3032 31 -0.000434217221119005
3032 3031 -0.00119092785784032
3032 3032 0.0193933111634516
3033 31 -0.0166666666666667
3033 3033 0.0172958818583838
3033 3034 -1.21597095988231e-06
3034 3033 -2.40054389113919e-08
3034 3034 0.0178147088549028
3035 22 -0.000430721544738903
3035 23 0.0
3035 25 -0.0166666666666667
3035 3018 0.0
3035 3035 0.0192819870996424
3035 3036 -0.00109302488191087
3036 22 -0.000439524019069753
3036 3035 -0.00115810409218265
3036 3036 0.019370279163177
3037 8 -0.0166666666666667
3037 3037 0.017296423161197
3037 3038 -1.19986668002372e-06
3038 8 0.0
3038 9 0.0
3038 10 -0.0166666666666667
3038 2991 0.0
3038 3037 -2.37439154341177e-08
3038 3038 0.0178139470404297
3039 32 -0.0166666666666667
3039 33 -0.000435072265974591
3039 3039 0.0194633683526404
3039 3040 -0.00125613277918752
3040 33 -0.000435066581504923
3040 3039 -0.00118122901996727
3040 3040 0.0193884385258774
3041 33 -0.0166666666666667
3041 35 -0.000138286961247241
3041 3041 0.0172964750459083
3041 3042 -1.21275616494761e-06
3042 35 -0.000140229233668098
3042 3041 -2.39672729870901e-08
3042 3042 0.01781470568903
3043 36 -0.000140242815655179
3043 3043 0.0178147229316947
3043 3044 -2.43082078767443e-08
3044 33 -0.0166666666666667
3044 36 -0.00013827337926016
3044 3043 -1.22951654344512e-06
3044 3044 0.0172964754242463
3045 36 -0.0166666666666667
3045 37 -0.000434576582527967
3045 3045 0.0193710715232028
3045 3046 -0.00116591990546045
3046 37 -0.000435573489949337
3046 3045 -0.00123960904534559
3046 3046 0.0194474141497075
3047 37 -0.0166666666666667
3047 3047 0.0172985028689812
3047 3048 -1.11564513924943e-06
3048 38 -0.0166666666666667
3048 3047 -2.23410986359397e-08
3048 3048 0.0178095672953987
3049 38 -0.0166666666666667
3049 3049 0.0193790139692227
3049 3050 -0.001181346521189
3050 3049 -0.00125224418475918
3050 3050 0.0194616264856153
3051 35 -0.0166666666666667
3051 39 -0.000435072976730357
3051 3051 0.0194637397133314
3051 3052 -0.00125650151292972
3052 39 -0.000435065886383583
3052 3051 -0.00118159504407725
3052 3052 0.0193888007309931
3053 40 -0.000435021380261555
3053 41 -0.0166666666666667
3053 3053 0.0193957932538243
3053 3054 -0.00118877268529867
3053 3100 0.0
3054 40 -0.000435118476044887
3054 3053 -0.0012637392302971
3054 3054 0.0194710559190933
3055 42 -0.0166666666666667
3055 43 -0.000138286733578441
3055 3055 0.0172964394256113
3055 3056 -1.21301807421783e-06
3056 43 -0.000140229461336898
3056 3055 -2.39709674501792e-08
3056 3056 0.0178147059272173
3057 43 -0.0166666666666667
3057 45 -0.000435070746654247
3057 3057 0.0194636473054103
3057 3058 -0.00125641682842024
3058 45 -0.000435068067322774
3058 3057 -0.00118149814806462
3058 3058 0.0193887163382647
3059 46 -0.000139258062928016
3059 3059 0.0178144318351523
3059 3060 -9.33880353406907e-07
3060 43 -0.0166666666666667
3060 46 -0.000139258131987323
3060 3059 -9.33769427979962e-07
3060 3060 0.0178144352914434
3061 45 -0.0166666666666667
3061 48 -0.000138276442783732
3061 3061 0.0172964390046606
3061 3062 -1.22571812837964e-06
3062 48 -0.000140239752131608
3062 3061 -2.42291801426243e-08
3062 3062 0.0178147201764873
3063 40 -0.000434889017803224
3063 48 -0.0166666666666667
3063 3063 0.019394373753861
3063 3064 -0.00118860422039771
3064 1 0.0
3064 40 -0.000435253786460061
3064 47 0.0
3064 48 0.0
3064 49 -0.0166666666666667
3064 3063 -0.00126316205126679
3064 3064 0.0194699012602338
3064 3065 0.0
3065 47 -0.000434870514603341
3065 49 -0.0166666666666667
3065 3064 0.0
3065 3065 0.019387881757161
3065 3066 -0.00118146947412014
3066 47 -0.000435272746258684
3066 3065 -0.0012560465290784
3066 3066 0.019463529737706
3067 1 -0.000138286756523262
3067 47 -0.0166666666666667
3067 3067 0.0172964396533356
3067 3068 -1.21298992344433e-06
3068 1 -0.000140229438392077
3068 3067 -2.39704033946371e-08
3068 3068 0.0178147059349156
3069 46 -0.0166666666666667
3069 51 -0.000435070727065608
3069 3069 0.0194637077506569
3069 3070 -0.0012564774313778
3070 51 -0.000435068086477602
3070 3069 -0.00118155678661578
3070 3070 0.019388774996751
3071 1 -0.000138900356244382
3071 50 0.0
3071 51 -0.0166666666666667
3071 3071 0.0172964161546673
3071 3072 -4.2699443527436e-07
3072 1 -0.000139615838670957
3072 50 0.0
3072 52 -0.0166666666666667
3072 3071 -9.47619561016757e-09
3072 3072 0.017749588289411
3072 3073 0.0
3073 50 -0.000138909454179009
3073 52 -0.0166666666666667
3073 3072 0.0
3073 3073 0.0177492151422632
3073 3074 -5.19120801586516e-07
3074 50 -0.00013960674073633
3074 3073 -4.98003721032979e-08
3074 3074 0.0178140167474564
3075 40 -0.000434968358559785
3075 50 -0.0166666666666667
3075 3075 0.0193955726939472
3075 3076 -0.00118875145877564
3076 40 -0.00043517268117143
3076 3075 -0.00126364253425448
3076 3076 0.0194710320647638
3077 54 -0.000427144778551284
3077 55 -0.0166666666666667
3077 3077 0.0193457297954396
3077 3078 -0.00117022370416928
3078 54 -0.000443167299433835
3078 3077 -0.00123123427263146
3078 3078 0.0194484060865462
3079 54 -0.0166666666666667
3079 3079 0.017297849679876
3079 3080 -4.15800227862941e-07
3080 53 0.0
3080 54 0.0
3080 56 -0.0166666666666667
3080 3079 -9.27299841537387e-09
3080 3080 0.0177484703644168
3081 53 -0.0166666666666667
3081 3081 0.0193674050743438
3081 3082 -0.00118115734794936
3082 3081 -0.00124713171719899
3082 3082 0.0194600874520639
3083 40 -0.0166666666666667
3083 57 4.03316551935295e-05
3083 3083 0.01730195656028
3083 3084 -0.00021153554370646
3084 57 -0.000713262909582468
3084 3083 -1.04149302119305e-05
3084 3084 0.0185091585802884
3085 55 -0.000138671855069575
3085 57 -0.0166666666666667
3085 3085 0.0175467171312233
3085 3086 -7.95488176607448e-07
3086 55 -0.000139844339845765
3086 3085 -2.84331238335905e-08
3086 3086 0.0178133916912855
3087 59 -0.000143088258477574
3087 3087 0.0178183546415563
3087 3088 -1.93011674962319e-07
3088 57 -0.0166666666666667
3088 59 -0.000135427936437765
3088 3087 -5.06772449993064e-06
3088 3088 0.0175471635134074
3089 59 -0.0166666666666667
3089 60 -0.000337097960055971
3089 3089 0.0183597810468748
3089 3090 -0.000455376277614669
3090 60 -0.000529554555471797
3090 3089 -0.00038982788887524
3090 3090 0.0187227106527687
3091 60 -0.0166666666666667
3091 3091 0.018452795420923
3091 3092 -0.000918001551148693
3092 60 0.0
3092 61 -0.0166666666666667
3092 3091 -0.000738253265195438
3092 3092 0.0188197523488805
3092 3093 0.0
3093 60 0.0
3093 61 -0.0166666666666667
3093 62 -0.000239135715409319
3093 3092 0.0
3093 3093 0.0187454059199008
3093 3094 -0.00106896425909097
3094 62 -0.000630652995284447
3094 3093 -0.0008895503293857
3094 3094 0.0192970827972911
3095 62 -0.0166666666666667
3095 3095 0.0173071968997475
3095 3096 -1.17638457460658e-06
3096 3095 -2.34787153019127e-08
3096 3096 0.0178149781133057
3097 53 -0.000138857649137927
3097 56 -0.0166666666666667
3097 3097 0.0177480973766994
3097 3098 -5.93631384362743e-07
3098 53 -0.000139658545777412
3098 3097 -5.58748334339288e-08
3098 3098 0.0178140924667235
3099 1 -0.000138288251646272
3099 39 -0.0166666666666667
3099 40 0.0
3099 3099 0.0172964277750681
3099 3100 -1.21100320738715e-06
3100 1 -0.000140227943269067
3100 40 0.0
3100 41 -0.0166666666666667
3100 3053 0.0
3100 3099 -2.39358302523398e-08
3100 3100 0.017814589366183
3101 63 -0.0166666666666667
3101 64 -0.000138286660715921
3101 3101 0.0172964364510581
3101 3102 -1.21310638575149e-06
3102 64 -0.000140229534199418
3102 3101 -2.3972627735647e-08
3102 3102 0.017814706002785
3103 64 -0.0166666666666667
3103 66 -0.000139258077328959
3103 3103 0.0178144298829951
3103 3104 -9.33803076573282e-07
3104 66 -0.000139258117586381
3104 3103 -9.33774429165532e-07
3104 3104 0.017814431861843
3105 67 -0.000435070190010079
3105 3105 0.0194636360494852
3105 3106 -0.0012564093526161
3106 64 -0.0166666666666667
3106 67 -0.000435068611700095
3106 3105 -0.00118148312544619
3106 3106 0.0193887056174587
3107 67 -0.0166666666666667
3107 68 -0.000138286694923929
3107 3107 0.0172964393771044
3107 3108 -1.21306573571081e-06
3108 68 -0.00014022949999141
3108 3107 -2.39719351623947e-08
3108 3108 0.0178147059632728
3109 68 -0.0166666666666667
3109 3109 0.0193887976520877
3109 3110 -0.001181572080297
3110 69 -0.0166666666666667
3110 3109 -0.00125650164472156
3110 3110 0.0194637273004373
3111 69 -0.0166666666666667
3111 3111 0.0193887977203392
3111 3112 -0.00118157208884186
3112 3111 -0.00125650167109372
3112 3112 0.0194637273863749
3113 66 -0.0166666666666667
3113 70 -0.000435069372832835
3113 3113 0.019388781417571
3113 3114 -0.00118155580222921
3114 70 -0.00043506941172619
3114 3113 -0.00125648501071033
3114 3114 0.0194637107296698
3115 71 -0.000138910376259481
3115 72 -0.0166666666666667
3115 3115 0.0177492251547946
3115 3116 -5.17779583567776e-07
3115 3162 0.0
3116 71 -0.000139605818655859
3116 3115 -4.96800708557239e-08
3116 3116 0.0178140139542
3117 73 -0.0166666666666667
3117 74 -0.000435069384652434
3117 3117 0.019388441859563
3117 3118 -0.00118121619467206
3118 74 -0.000435069399640343
3118 3117 -0.00125613777078238
3118 3118 0.019463363475604
3119 74 -0.0166666666666667
3119 76 -0.000138286858193205
3119 3119 0.0172964743992244
3119 3120 -1.2128829537422e-06
3120 76 -0.000140229336722135
3120 3119 -2.39698239143706e-08
3120 3120 0.0178147057813429
3121 77 -0.000140229336893624
3121 3121 0.0178147057815411
3121 3122 -2.39698282191904e-08
3122 74 -0.0166666666666667
3122 77 -0.000138286858021716
3122 3121 -1.21288316535549e-06
3122 3122 0.017296474399228
3123 76 -0.0166666666666667
3123 79 -0.000435069384536215
3123 3123 0.0193887088952683
3123 3124 -0.00118148323088717
3124 79 -0.000435069399759127
3124 3123 -0.00125641082509626
3124 3124 0.0194636365300336
3125 71 -0.000138287928869166
3125 78 0.0
3125 79 -0.0166666666666667
3125 3125 0.0172964393406604
3125 3126 -1.2114352656524e-06
3126 71 -0.000140228266046173
3126 78 0.0
3126 80 -0.0166666666666667
3126 3125 -2.39438477767507e-08
3126 3126 0.0178146131748509
3126 3127 0.0
3127 78 -0.000435032845221743
3127 80 -0.0166666666666667
3127 3126 0.0
3127 3127 0.0193885566142219
3127 3128 -0.00118148087424705
3128 78 -0.000435106762281529
3128 3127 -0.00125634391561759
3128 3128 0.0194636165590848
3129 32 -0.000138286772670705
3129 78 -0.0166666666666667
3129 3129 0.0172964393993381
3129 3130 -1.2129698043241e-06
3130 32 -0.000140229422244635
3130 3129 -2.39699852667254e-08
3130 3130 0.0178147058666822
3131 77 -0.0166666666666667
3131 82 -0.000435069378322736
3131 3131 0.0193887087203693
3131 3132 -0.00118148308295969
3132 82 -0.00043506940611262
3132 3131 -0.00125641066243104
3132 3132 0.0194636363738772
3133 32 -0.00013828800560159
3133 82 -0.0166666666666667
3133 3133 0.0172964393580568
3133 3134 -1.21134061697532e-06
3134 32 -0.000140228189313749
3134 71 0.0
3134 81 0.0
3134 82 0.0
3134 83 -0.0166666666666667
3134 3133 -2.39419221487563e-08
3134 3134 0.0178146131028352
3134 3135 0.0
3135 81 -0.000435032854625326
3135 83 -0.0166666666666667
3135 3134 0.0
3135 3135 0.0193885567877558
3135 3136 -0.00118148100749493
3136 81 -0.000435106752666
3136 3135 -0.00125634406896882
3136 3136 0.0194636167020634
3137 71 -0.000138286695535615
3137 81 -0.0166666666666667
3137 3137 0.0172964393838882
3137 3138 -1.21306498448361e-06
3138 71 -0.000140229499379725
3138 3137 -2.39719201961261e-08
3138 3138 0.0178147059625158
3139 85 -0.000435069384789495
3139 86 -0.0166666666666667
3139 3139 0.0193887118630178
3139 3140 -0.00118148619756011
3140 85 -0.000435069399500139
3140 3139 -0.00125641385907749
3140 3140 0.0194636395637266
3141 85 -0.0166666666666667
3141 3141 0.0172965077542917
3141 3142 -1.02046200973755e-06
3142 85 0.0
3142 87 -0.0166666666666667
3142 3141 -9.27568247376279e-08
3142 3142 0.017305133916006
3142 3159 0.0
3143 84 -0.0166666666666667
3143 3143 0.019388797754971
3143 3144 -0.00118157208932238
3144 3143 -0.00125650168627744
3144 3144 0.0194637273908666
3145 71 -0.0166666666666667
3145 88 -0.000435069382174439
3145 3145 0.0193884418484904
3145 3146 -0.00118121619377422
3146 88 -0.000435069402174196
3146 3145 -0.00125613776548786
3146 3146 0.0194633634734873
3147 86 -0.000138286858200592
3147 88 -0.0166666666666667
3147 3147 0.017296474399323
3147 3148 -1.21288294467889e-06
3148 86 -0.000140229336714748
3148 3147 -2.39698237345604e-08
3148 3148 0.0178147057813338
3149 90 -0.000140229336715104
3149 3149 0.0178147057813343
3149 3150 -2.39698237435695e-08
3150 88 -0.0166666666666667
3150 90 -0.000138286858200235
3150 3149 -1.21288294511917e-06
3150 3150 0.017296474399323
3151 90 -0.0166666666666667
3151 91 -0.000435069384776443
3151 3151 0.0193887118629636
3151 3152 -0.00118148619755951
3152 91 -0.000435069399513485
3152 3151 -0.00125641385905383
3152 3152 0.0194636395637197
3153 91 -0.0166666666666667
3153 3153 0.0172965077542917
3153 3154 -1.02046200973782e-06
3154 91 0.0
3154 92 -0.0166666666666667
3154 3153 -9.27568247375444e-08
3154 3154 0.017305133916006
3154 3155 0.0
3155 91 0.0
3155 92 -0.0166666666666667
3155 93 -0.000138320998722294
3155 3154 0.0
3155 3155 0.0173041376249854
3155 3156 -1.17464392253343e-06
3156 93 -0.000140195196193045
3156 3155 -2.35410513736254e-08
3156 3156 0.0178146677207012
3157 93 -0.0166666666666667
3157 3157 0.019388797754971
3157 3158 -0.00118157208932238
3158 3157 -0.00125650168627746
3158 3158 0.0194637273908666
3159 84 -0.000138320998722293
3159 85 0.0
3159 87 -0.0166666666666667
3159 3142 0.0
3159 3159 0.0173041376249854
3159 3160 -1.17464392253385e-06
3160 84 -0.000140195196193046
3160 3159 -2.35410513736612e-08
3160 3160 0.0178146677207012
3161 32 -0.000138900291039652
3161 70 -0.0166666666666667
3161 3161 0.0172964151618227
3161 3162 -4.27075077777845e-07
3162 32 -0.000139615903875687
3162 70 0.0
3162 71 0.0
3162 72 -0.0166666666666667
3162 3115 0.0
3162 3161 -9.47777749626817e-09
3162 3162 0.0177495996071507
3163 94 -0.0166666666666667
3163 95 -0.000138286670421677
3163 3163 0.0172964386794358
3163 3164 -1.21309559766889e-06
3164 95 -0.000140229524493662
3164 3163 -2.39725105714824e-08
3164 3164 0.0178147059913014
3165 95 -0.0166666666666667
3165 97 -0.000435068591366232
3165 3165 0.0193887241621244
3165 3166 -0.00118150189715467
3166 97 -0.000435070210801717
3166 3165 -0.00125642846904032
3166 3166 0.0194636550484258
3167 98 -0.000139258118141762
3167 3167 0.0178144320174323
3167 3168 -9.33929273088272e-07
3168 95 -0.0166666666666667
3168 98 -0.000139258076773577
3168 3167 -9.33958710839114e-07
3168 3168 0.0178144299843184
3169 98 -0.0166666666666667
3169 99 -0.000435063329379546
3169 3169 0.0193848776262358
3169 3170 -0.00117767775442943
3170 99 -0.000435075591995544
3170 3169 -0.0012525084295331
3170 3170 0.0194597409762624
3171 99 -0.0166666666666667
3171 3171 0.0172969944928272
3171 3172 -7.55324939016157e-06
3172 100 -0.0166666666666667
3172 3171 -7.79115314441779e-08
3172 3172 0.0179004996942138
3173 100 -0.0166666666666667
3173 3173 0.017897699974893
3173 3174 -2.33628102656008e-07
3174 3173 -3.87667548981126e-06
3174 3174 0.0178135930268625
3175 97 -0.0166666666666667
3175 101 -0.000138280140954258
3175 3175 0.0172964370559683
3175 3176 -1.22115135534191e-06
3176 101 -0.000140236053961082
3176 3175 -2.4136311516319e-08
3176 3176 0.0178147135015842
3177 102 -0.000434818199339675
3177 103 -0.0166666666666667
3177 3177 0.0193948601305158
3177 3178 -0.00118873902082605
3177 3224 0.0
3178 102 -0.000435326186862403
3178 3177 -0.00126336416797765
3178 3178 0.0194708368874159
3179 104 -0.0166666666666667
3179 105 -0.000435069368742756
3179 3179 0.0193884422504905
3179 3180 -0.00118121665337719
3180 105 -0.000435069415908644
3180 3179 -0.00125613821100521
3180 3180 0.0194633639337775
3181 105 -0.0166666666666667
3181 107 -0.000138286593339165
3181 3181 0.0172964743448792
3181 3182 -1.21320975071519e-06
3182 107 -0.000140229601576174
3182 3181 -2.39764688220868e-08
3182 3182 0.0178147060922408
3183 108 -0.000140229353764145
3183 3183 0.0178147058017989
3183 3184 -2.39702482700813e-08
3184 105 -0.0166666666666667
3184 108 -0.000138286841151194
3184 3183 -1.21290395200247e-06
3184 3184 0.0172964743394126
3185 107 -0.0166666666666667
3185 110 -0.000435059778147493
3185 3185 0.0193889053227481
3185 3186 -0.0011817211653276
3186 110 -0.00043507922254074
3186 3185 -0.00125663654535791
3186 3186 0.0194638725033138
3187 102 -0.000138107939681827
3187 109 0.0
3187 110 -0.0166666666666667
3187 3187 0.0172964935301388
3187 3188 -1.20622187566449e-06
3188 102 -0.000140408255233512
3188 109 0.0
3188 111 -0.0166666666666667
3188 3187 -1.10214153508717e-07
3188 3188 0.0173052150067069
3188 3189 0.0
3189 109 -0.000138320118013873
3189 111 -0.0166666666666667
3189 3188 0.0
3189 3189 0.0173040340098523
3189 3190 -1.17568258902887e-06
3190 109 -0.000140196076901467
3190 3189 -2.35576501589924e-08
3190 3190 0.0178146687262425
3191 63 -0.000435052937193478
3191 109 -0.0166666666666667
3191 3191 0.0193886625538399
3191 3192 -0.00118150457761581
3192 63 -0.000435086217679553
3192 3191 -0.00125640355926819
3192 3192 0.0194636501951265
3193 108 -0.0166666666666667
3193 113 -0.00043506877385816
3193 3193 0.0193887257892275
3193 3194 -0.00118150274119342
3194 113 -0.000435070024197672
3194 3193 -0.00125642966436279
3194 3194 0.0194636560434884
3195 63 -0.000138285143313543
3195 113 -0.0166666666666667
3195 3195 0.0172965054748793
3195 3196 -1.0198813867695e-06
3196 63 -0.000140231051601797
3196 102 0.0
3196 112 0.0
3196 113 0.0
3196 114 -0.0166666666666667
3196 3195 -9.26502681628199e-08
3196 3196 0.0173051393629538
3196 3197 0.0
3197 112 -0.000138312498857106
3197 114 -0.0166666666666667
3197 3196 0.0
3197 3197 0.0173041438368815
3197 3198 -1.18517343244098e-06
3198 112 -0.000140203696058234
3198 3197 -2.37586532645377e-08
3198 3198 0.0178146776002247
3199 102 -0.000434750487935355
3199 112 -0.0166666666666667
3199 3199 0.019394578839884
3199 3200 -0.00118873511395484
3200 102 -0.00043539540580211
3200 3199 -0.00126324081474057
3200 3200 0.0194708001084721
3201 116 -0.000436779134539226
3201 117 -0.0166666666666667
3201 3201 0.0194803280841454
3201 3202 -0.00126728100453281
3202 116 -0.000433396918749565
3202 3201 -0.00120221471825895
3202 3202 0.0194000950994309
3203 116 -0.0166666666666667
3203 3203 0.0172950455023188
3203 3204 -1.0430947883994e-06
3204 116 0.0
3204 118 -0.0166666666666667
3204 3203 -2.09695226067755e-08
3204 3204 0.0178040398395855
3204 3221 0.0
3205 115 -0.0166666666666667
3205 3205 0.0173086281051332
3205 3206 -1.16921175366159e-06
3206 3205 -2.34055546297331e-08
3206 3206 0.0178149613334783
3207 102 -0.0166666666666667
3207 119 -0.00011031096738495
3207 3207 0.0172962108365329
3207 3208 -3.4655012440606e-05
3208 119 -0.000562620287003988
3208 3207 -4.73445694664381e-06
3208 3208 0.0183333673483181
3209 117 -0.000138849213053177
3209 119 -0.0166666666666667
3209 3209 0.017617008421919
3209 3210 -5.67788699156872e-07
3210 117 -0.000139666981862162
3210 3209 -2.46149781576928e-08
3210 3210 0.017814058849745
3211 121 -0.000143948366628467
3211 3211 0.0178223326710732
3211 3212 -2.94765827682543e-07
3212 119 -0.0166666666666667
3212 121 -0.000134567828286872
3212 3211 -6.81196695094317e-06
3212 3212 0.017616668035556
3213 121 -0.0166666666666667
3213 122 -0.000344952960576817
3213 3213 0.0189193905894523
3213 3214 -0.00100548420996316
3214 122 -0.000526365968885629
3214 3213 -0.000945436157371731
3214 3214 0.0192537236307864
3215 122 -0.0166666666666667
3215 3215 0.0173199119681976
3215 3216 -1.23676178966298e-06
3216 122 0.0
3216 123 -0.0166666666666667
3216 124 0.0
3216 3215 -2.3598447748915e-08
3216 3216 0.0178172740173286
3217 123 -0.0166666666666667
3217 124 -0.000435940683620559
3217 3217 0.0194709389729268
3217 3218 -0.00126074169224679
3218 124 -0.000434217221098729
3218 3217 -0.00119092785894799
3218 3218 0.0193933111644412
3219 124 -0.0166666666666667
3219 3219 0.0172958818582513
3219 3220 -1.21597096057542e-06
3220 3219 -2.40054389194566e-08
3220 3220 0.0178147088549035
3221 115 -0.000430721544928323
3221 116 0.0
3221 118 -0.0166666666666667
3221 3204 0.0
3221 3221 0.0192819871000558
3221 3222 -0.00109302488139546
3222 115 -0.000439524018875911
3222 3221 -0.00115810409202822
3222 3222 0.0193702791629623
3223 63 -0.00043508498234531
3223 101 -0.0166666666666667
3223 102 0.0
3223 3223 0.0194623470555931
3223 3224 -0.00125600599101202
3224 63 -0.000435054144804907
3224 102 0.0
3224 103 -0.0166666666666667
3224 3177 0.0
3224 3223 -0.00118137412384183
3224 3224 0.0193876331668423
3225 125 -0.0166666666666667
3225 126 -0.00013828669084683
3225 3225 0.0172964393832697
3225 3226 -1.21307076941768e-06
3226 126 -0.000140229504068509
3226 3225 -2.39720378568451e-08
3226 3226 0.0178147059675646
3227 126 -0.0166666666666667
3227 128 -0.000435069213980331
3227 3227 0.0193887126423958
3227 3228 -0.00118148776859817
3228 128 -0.00043506957415825
3228 3227 -0.00125641513719206
3228 3228 0.0194636409705597
3229 129 -0.000139258102070887
3229 3229 0.0178144321253346
3229 3230 -9.34057299894995e-07
3230 126 -0.0166666666666667
3230 129 -0.000139258092844452
3230 3229 -9.34063912396125e-07
3230 3230 0.0178144316718927
3231 129 -0.0166666666666667
3231 130 -0.00043505918669672
3231 3231 0.019383836829811
3231 3232 -0.0011766545250755
3232 130 -0.000435079828747283
3232 3231 -0.00125145454139509
3232 3232 0.0194586918508349
3233 130 -0.0166666666666667
3233 3233 0.0172970581684628
3233 3234 -1.16362368857371e-17
3234 131 -0.0166666666666667
3234 3233 -6.92387039594141e-19
3234 3234 0.0173226956581742
3235 131 -0.0166666666666667
3235 3235 0.0173227088035449
3235 3236 -1.09342148655365e-06
3236 3235 -2.27142423077077e-08
3236 3236 0.0178145868761214
3237 128 -0.0166666666666667
3237 132 -0.000138285779894368
3237 3237 0.0172964387861731
3237 3238 -1.21419432935653e-06
3238 132 -0.000140230415020972
3238 3237 -2.39948730000151e-08
3238 3238 0.0178147068681758
3239 133 -0.000435017582368835
3239 134 -0.0166666666666667
3239 3239 0.0193888839247167
3239 3240 -0.0011818950588244
3239 3286 0.0
3240 133 -0.000435122368257236
3240 3239 -0.00125673333404555
3240 3240 0.0194640013018384
3241 135 -0.0166666666666667
3241 136 -0.000435069372007444
3241 1259 0.0
3241 3241 0.0193884419847699
3241 3242 -0.00118121637448865
3242 136 -0.000435069412570366
3242 3241 -0.00125613793152612
3242 3242 0.0194633636498748
3243 136 -0.0166666666666667
3243 138 -0.00013828677139103
3243 3243 0.0172964743771341
3243 3244 -1.21299004622935e-06
3244 138 -0.000140229423524309
3244 3243 -2.39720016692284e-08
3244 3244 0.0178147058760877
3245 139 -0.000140229346218552
3245 3245 0.0178147057920136
3245 3246 -2.39700609664734e-08
3246 136 -0.0166666666666667
3246 139 -0.000138286848696788
3246 3245 -1.2128946591533e-06
3246 3246 0.0172964743758161
3247 138 -0.0166666666666667
3247 141 -0.000435066266755664
3247 3247 0.0193887360934393
3247 3248 -0.00118152418161518
3248 141 -0.000435072587790153
3248 3247 -0.00125644691154631
3248 3248 0.0194636756633727
3249 133 -0.000138274982048602
3249 140 0.0
3249 141 -0.0166666666666667
3249 3249 0.0172965033247536
3249 3250 -1.03050516658617e-06
3250 133 -0.000140241212866737
3250 140 0.0
3250 142 -0.0166666666666667
3250 3249 -9.35932238155109e-08
3250 3250 0.0173051502951347
3250 3251 0.0
3251 140 -0.000138320910572908
3251 142 -0.0166666666666667
3251 3250 0.0
3251 3251 0.0173041442833562
3251 3252 -1.17475642480551e-06
3252 140 -0.000140195284342431
3252 3251 -2.35436840180659e-08
3252 3252 0.0178146678139698
3253 94 -0.000435065044970893
3253 140 -0.0166666666666667
3253 3253 0.0193886960011524
3253 3254 -0.00118148826831425
3254 94 -0.000435073837108245
3254 3253 -0.00125640827839762
3254 3254 0.0194636394345385
3255 139 -0.0166666666666667
3255 144 -0.000435069045666088
3255 3255 0.019388715559309
3255 3256 -0.00118149137295134
3256 144 -0.000435069746265179
3256 3255 -0.00125641852657909
3256 3256 0.0194636445794403
3257 94 -0.000138284790665694
3257 143 0.0
3257 144 -0.0166666666666667
3257 3257 0.0172965069829389
3257 3258 -1.02023342811812e-06
3258 94 -0.000140231404249645
3258 143 0.0
3258 145 -0.0166666666666667
3258 3257 -9.26650122837622e-08
3258 3258 0.017305143996564
3258 3259 0.0
3259 143 -0.000138319195561077
3259 145 -0.0166666666666667
3259 3258 0.0
3259 3259 0.017304147961423
3259 3260 -1.17688204166686e-06
3260 143 -0.000140196999354262
3260 3259 -2.35877316475454e-08
3260 3260 0.0178146696122764
3261 133 -0.000435000864585251
3261 143 -0.0166666666666667
3261 3261 0.0193888142839696
3261 3262 -0.0011818940788496
3262 133 -0.000435139462305625
3262 3261 -0.00125670280436314
3262 3262 0.0194639921507386
3263 147 -0.000310287644885221
3263 148 -0.0166666666666667
3263 3263 0.0188278985006656
3263 3264 -0.00100006104572015
3264 147 -0.000560775130597174
3264 3263 -0.000898332650045155
3264 3264 0.0192410591480841
3265 147 -0.0166666666666667
3265 3265 0.0173196351833988
3265 3266 -1.23805476906965e-06
3266 146 0.0
3266 147 0.0
3266 149 -0.0166666666666667
3266 3265 -2.36101000931807e-08
3266 3266 0.0178172764972892
3267 146 -0.0166666666666667
3267 3267 0.0172958803102314
3267 3268 -1.21597905454717e-06
3268 3267 -2.40055324643048e-08
3268 3268 0.0178147088629615
3269 133 -0.0166666666666667
3269 150 -0.000138419555564683
3269 3269 0.0172963780471656
3269 3270 -1.04886506051046e-06
3270 150 -0.000140096639350656
3270 3269 -2.06406041294608e-08
3270 3270 0.0178144680355107
3271 148 -0.000446184483319575
3271 150 -0.0166666666666667
3271 3271 0.0184437042794662
3271 3272 -0.00021019798640578
3272 148 -0.000411111793506487
3272 3271 -0.000182960367117893
3272 3272 0.0183325256678834
3273 152 -0.000139012530212418
3273 3273 0.0178148150557866
3273 3274 -1.99498340007144e-06
3274 150 -0.0166666666666667
3274 152 -0.000139503664702921
3274 3273 -1.28505524246537e-06
3274 3274 0.0178294573883331
3275 152 -0.0166666666666667
3275 153 -0.000422822405468365
3275 3275 0.0193497604591337
3275 3276 -0.00119072564830831
3276 153 -0.000447571581638853
3276 3275 -0.00124503388545287
3276 3276 0.0194675615509682
3277 153 -0.0166666666666667
3277 3277 0.0172951192308573
3277 3278 -1.07141838335928e-06
3278 153 0.0
3278 154 -0.0166666666666667
3278 3277 -2.14703230748566e-08
3278 3278 0.0178058595670048
3278 3279 0.0
3279 153 0.0
3279 154 -0.0166666666666667
3279 155 -0.00043148328857666
3279 3278 0.0
3279 3279 0.0193058537142562
3279 3280 -0.00111369468800605
3280 155 -0.000438741647262609
3280 3279 -0.00118063268562849
3280 3280 0.0193919603585518
3281 155 -0.0166666666666667
3281 3281 0.0173056689022044
3281 3282 -1.18363055389575e-06
3282 3281 -2.35558337256563e-08
3282 3282 0.017814985785236
3283 146 -0.000435941020866373
3283 149 -0.0166666666666667
3283 3283 0.0194709518251613
3283 3284 -0.00126075351291434
3284 146 -0.000434216890957877
3284 3283 -0.00119094077856059
3284 3284 0.019393322087097
3285 94 -0.000435089215417341
3285 132 -0.0166666666666667
3285 133 0.0
3285 3285 0.0194634518078929
3285 3286 -0.00125632584199591
3286 94 -0.000435050005423794
3286 133 0.0
3286 134 -0.0166666666666667
3286 3239 0.0
3286 3285 -0.00118146952991411
3286 3286 0.0193884910636192
3287 156 -0.0166666666666667
3287 157 -0.000138286696532328
3287 3287 0.0172964396823254
3287 3288 -1.21306391322726e-06
3288 157 -0.000140229498383011
3288 3287 -2.39719121263431e-08
3288 3288 0.0178147059609039
3289 157 -0.0166666666666667
3289 159 -0.000139258096875933
3289 3289 0.017814431803094
3289 3290 -9.33801410703609e-07
3290 159 -0.000139258098039406
3290 3289 -9.33800582768692e-07
3290 3290 0.0178144318602838
3291 160 -0.000435069414335974
3291 3291 0.0194636364171988
3291 3292 -0.00125641069437981
3292 157 -0.0166666666666667
3292 160 -0.000435069370280601
3292 3291 -0.00118148312778893
3292 3292 0.0193887087332375
3293 160 -0.0166666666666667
3293 161 -0.000138286694969621
3293 3293 0.0172964393825588
3293 3294 -1.21306568223364e-06
3294 161 -0.000140229499945718
3294 3293 -2.39719343252174e-08
3294 3294 0.0178147059632163
3295 161 -0.0166666666666667
3295 3295 0.0193887976553535
3295 3296 -0.00118157208059822
3296 162 -0.0166666666666667
3296 3295 -0.00125650164603376
3296 3296 0.0194637273034572
3297 162 -0.0166666666666667
3297 3297 0.0193887977225203
3297 3298 -0.0011815720888719
3298 3297 -0.00125650167205011
3298 3298 0.0194637273866555
3299 159 -0.0166666666666667
3299 163 -0.000435069382051928
3299 3299 0.0193887118569477
3299 3300 -0.00118148620273378
3300 163 -0.000435069402299393
3300 3299 -0.00125641385953188
3300 3300 0.0194636395676883
3301 164 -0.000138321048329605
3301 165 -0.0166666666666667
3301 3301 0.0173041492305232
3301 3302 -1.17458831050517e-06
3301 3348 0.0
3302 164 -0.000140195146585734
3302 3301 -2.35404449719397e-08
3302 3302 0.0178146676653484
3303 166 -0.0166666666666667
3303 167 -0.000138286695611057
3303 1321 0.0
3303 3303 0.0172964393844355
3303 3304 -1.21306489168701e-06
3304 167 -0.000140229499304282
3304 3303 -2.39719183336094e-08
3304 3304 0.0178147059624314
3305 167 -0.0166666666666667
3305 169 -0.000139258097270755
3305 3305 0.0178144318418146
3305 3306 -9.33801309788677e-07
3306 169 -0.000139258097644584
3306 3305 -9.33801043769264e-07
3306 3306 0.0178144318601899
3307 170 -0.000435069399485626
3307 3307 0.0194636364108726
3307 3308 -0.0012564107062425
3308 167 -0.0166666666666667
3308 170 -0.000435069384803689
3308 3307 -0.00118148311418031
3308 3308 0.0193887087796954
3309 169 -0.0166666666666667
3309 172 -0.000435069384827771
3309 3309 0.0193887815134154
3309 3310 -0.00118155584780089
3310 172 -0.000435069399460986
3310 3309 -0.00125648507879496
3310 3310 0.0194637107833945
3311 164 -0.000138900264540687
3311 172 -0.0166666666666667
3311 3311 0.017296415156685
3311 3312 -4.27106383900035e-07
3312 164 -0.000139615930374652
3312 171 0.0
3312 172 0.0
3312 173 -0.0166666666666667
3312 3311 -9.47849280649777e-09
3312 3312 0.0177495992954622
3312 3313 0.0
3313 171 -0.000138910376033075
3313 173 -0.0166666666666667
3313 3312 0.0
3313 3313 0.0177492248107082
3313 3314 -5.17779495462222e-07
3314 171 -0.000139605818882264
3314 3313 -4.96797031657575e-08
3314 3314 0.0178140139541174
3315 125 -0.000435069384129798
3315 171 -0.0166666666666667
3315 3315 0.0193887087862484
3315 3316 -0.00118148312365616
3316 125 -0.000435069400174702
3316 3315 -0.00125641071469571
3316 3316 0.0194636364200341
3317 170 -0.0166666666666667
3317 175 -0.000138286694981505
3317 3317 0.0172964393844495
3317 3318 -1.21306566857871e-06
3318 175 -0.000140229499933834
3318 3317 -2.39719341341386e-08
3318 3318 0.0178147059632027
3319 125 -0.000435069377183193
3319 174 0.0
3319 175 -0.0166666666666667
3319 3319 0.0193887086899636
3319 3320 -0.00118148311480718
3320 125 -0.000435069407277841
3320 174 0.0
3320 176 -0.0166666666666667
3320 3319 -0.00125641067599288
3320 3320 0.0194636363313262
3320 3321 0.0
3321 174 -0.000435069376688628
3321 176 -0.0166666666666667
3321 3320 0.0
3321 3321 0.0193887087459735
3321 3322 -0.00118148311376018
3322 174 -0.000435069407783549
3322 3321 -0.00125641069148616
3322 3322 0.0194636364065413
3323 164 -0.000138286695606837
3323 174 -0.0166666666666667
3323 3323 0.0172964393844274
3323 3324 -1.21306489688978e-06
3324 164 -0.000140229499308502
3324 3323 -2.39719184390481e-08
3324 3324 0.0178147059624366
3325 178 -0.000435069384800439
3325 179 -0.0166666666666667
3325 3325 0.0193887118630631
3325 3326 -0.00118148619756053
3326 178 -0.000435069399488948
3326 3325 -0.00125641385909724
3326 3326 0.0194636395637323
3327 178 -0.0166666666666667
3327 3327 0.0172965077542917
3327 3328 -1.02046200973719e-06
3328 178 0.0
3328 180 -0.0166666666666667
3328 3327 -9.2756824737845e-08
3328 3328 0.017305133916006
3328 3345 0.0
3329 177 -0.0166666666666667
3329 3329 0.0193887977549708
3329 3330 -0.00118157208932237
3330 3329 -0.00125650168627738
3330 3330 0.0194637273908665
3331 164 -0.0166666666666667
3331 181 -0.000435069384650815
3331 3331 0.0193884418583357
3331 3332 -0.00118121619344725
3332 181 -0.000435069399641999
3332 3331 -0.00125613776952835
3332 3332 0.0194633634743562
3333 179 -0.000138286858201177
3333 181 -0.0166666666666667
3333 3333 0.0172964743993847
3333 3334 -1.21288294398923e-06
3334 179 -0.000140229336714162
3334 3333 -2.39698237234471e-08
3334 3334 0.0178147057813331
3335 183 -0.000140229336714165
3335 3335 0.0178147057813331
3335 3336 -2.39698237234978e-08
3336 181 -0.0166666666666667
3336 183 -0.000138286858201174
3336 3335 -1.21288294399298e-06
3336 3336 0.0172964743993847
3337 183 -0.0166666666666667
3337 184 -0.000435069384800325
3337 3337 0.0193887118630626
3337 3338 -0.00118148619756053
3338 184 -0.000435069399489065
3338 3337 -0.00125641385909704
3338 3338 0.0194636395637322
3339 184 -0.0166666666666667
3339 3339 0.0172965077542917
3339 3340 -1.02046200973722e-06
3340 184 0.0
3340 185 -0.0166666666666667
3340 3339 -9.27568247378397e-08
3340 3340 0.017305133916006
3340 3341 0.0
3341 184 0.0
3341 185 -0.0166666666666667
3341 186 -0.000138320998722293
3341 3340 0.0
3341 3341 0.0173041376249854
3341 3342 -1.17464392253482e-06
3342 186 -0.000140195196193046
3342 3341 -2.35410513737083e-08
3342 3342 0.0178146677207012
3343 186 -0.0166666666666667
3343 3343 0.0193887977549708
3343 3344 -0.00118157208932237
3344 3343 -0.00125650168627738
3344 3344 0.0194637273908665
3345 177 -0.000138320998722293
3345 178 0.0
3345 180 -0.0166666666666667
3345 3328 0.0
3345 3345 0.0173041376249854
3345 3346 -1.17464392253482e-06
3346 177 -0.000140195196193046
3346 3345 -2.35410513737084e-08
3346 3346 0.0178146677207012
3347 125 -0.00013828469447956
3347 163 -0.0166666666666667
3347 164 0.0
3347 3347 0.0172965076669215
3347 3348 -1.02033061970779e-06
3348 125 -0.000140231500435779
3348 164 0.0
3348 165 -0.0166666666666667
3348 3301 0.0
3348 3347 -9.26701710590744e-08
3348 3348 0.0173051453907302
3349 187 -0.0166666666666667
3349 188 -0.000138123103593931
3349 3349 0.0172964538609525
3349 3350 -1.41493042418216e-06
3350 188 -0.000140393091321408
3350 3349 -2.80836077054835e-08
3350 3350 0.0178149166877636
3351 188 -0.0166666666666667
3351 190 -0.000429493592762822
3351 3351 0.0193663283421353
3351 3352 -0.00118155329481478
3352 190 -0.000440767063383174
3352 3351 -0.00124681061178208
3352 3352 0.0194610974716315
3353 191 -0.000440899213583508
3353 3353 0.0193018909827778
3353 3354 -0.00108835030296548
3354 188 -0.0166666666666667
3354 191 -0.000429390539341747
3354 3353 -0.00102736762162752
3354 3354 0.0192105826235979
3355 191 -0.0166666666666667
3355 192 -0.000135240574414479
3355 3355 0.0173186084279148
3355 3356 -5.02583390911269e-06
3356 192 -0.00014327562050086
3356 3355 -1.07223373775718e-07
3356 3356 0.017818821838504
3357 192 -0.0166666666666667
3357 3357 0.0191887710237797
3357 3358 -0.00115321249659207
3358 193 -0.0166666666666667
3358 3357 -0.00116955156282324
3358 3358 0.0193095009677902
3359 193 -0.0166666666666667
3359 3359 0.0192716415760125
3359 3360 -0.00117888093553793
3360 3359 -0.00120400166465171
3360 3360 0.0194469246141813
3361 190 -0.0166666666666667
3361 194 -0.000138287300795975
3361 3361 0.0172963839829421
3361 3362 -1.21228849838231e-06
3362 194 -0.000140228894119364
3362 3361 -2.39535905300789e-08
3362 3362 0.0178147051859354
3363 195 -0.00043508195045987
3363 196 -0.0166666666666667
3363 3363 0.0194629509412434
3363 3364 -0.0012556835155925
3363 3410 0.0
3364 195 -0.000435057110654062
3364 3363 -0.00118084397985068
3364 3364 0.0193879990665462
3365 197 -0.0166666666666667
3365 198 -0.000435069380325789
3365 1383 0.0
3365 3365 0.0193884418750694
3365 3366 -0.00118121622922624
3366 198 -0.000435069404064516
3366 3365 -0.00125613779809562
3366 3366 0.0194633635071833
3367 198 -0.0166666666666667
3367 200 -0.000138286845679548
3367 3367 0.0172964743947118
3367 3368 -1.21289838766225e-06
3368 200 -0.000140229349235791
3368 3367 -2.39701379014205e-08
3368 3368 0.017814705791493
3369 201 -0.000140229339372731
3369 3369 0.0178147057839792
3369 3370 -2.39698902061346e-08
3370 198 -0.0166666666666667
3370 201 -0.000138286855542608
3370 3369 -1.21288622158938e-06
3370 3370 0.0172964743947354
3371 200 -0.0166666666666667
3371 203 -0.00043506895000498
3371 3371 0.0193887012207536
3371 3372 -0.00118147761261617
3372 203 -0.000435069844082024
3372 3371 -0.00125640423249911
3372 3372 0.0194636302225951
3373 195 -0.000138300165059674
3373 202 0.0
3373 203 -0.0166666666666667
3373 3373 0.0172965071943531
3373 3374 -1.00404518995792e-06
3374 195 -0.000140216029855665
3374 202 0.0
3374 204 -0.0166666666666667
3374 3373 -9.11198389499341e-08
3374 3374 0.0173051412553599
3374 3375 0.0
3375 202 -0.000138321094746602
3375 204 -0.0166666666666667
3375 3374 0.0
3375 3375 0.0173041614291121
3375 3376 -1.17453693858401e-06
3376 202 -0.000140195100168738
3376 3375 -2.35399540925236e-08
3376 3376 0.0178146676069954
3377 156 -0.000435069198160921
3377 202 -0.0166666666666667
3377 3377 0.0193887057094738
3377 3378 -0.00118148083984232
3378 156 -0.000435069590334165
3378 3377 -0.00125640804230569
3378 3378 0.0194636339567481
3379 201 -0.0166666666666667
3379 206 -0.000435069291046625
3379 3379 0.0193887120222561
3379 3380 -0.00118148677817682
3380 206 -0.000435069495355378
3380 3379 -0.00125641427645286
3380 3380 0.0194636400648426
3381 156 -0.000138284743432992
3381 205 0.0
3381 206 -0.0166666666666667
3381 3381 0.0172965075862325
3381 3382 -1.02027850567167e-06
3382 156 -0.000140231451482347
3382 205 0.0
3382 207 -0.0166666666666667
3382 3381 -9.2664681100873e-08
3382 3382 0.017305145375368
3382 3383 0.0
3383 205 -0.000138321121808394
3383 207 -0.0166666666666667
3383 3382 0.0
3383 3383 0.017304149258441
3383 3384 -1.17449718296303e-06
3384 205 -0.000140195073106945
3384 3383 -2.35385724457536e-08
3384 3384 0.0178146674600714
3385 195 -0.000435072720707764
3385 205 -0.0166666666666667
3385 3385 0.019462919718957
3385 3386 -0.00125568468813201
3386 195 -0.000435066136833906
3386 3385 -0.00118078836231267
3386 3386 0.0193879970350075
3387 209 -0.000133620312350717
3387 210 -0.0166666666666667
3387 3387 0.0180438947424558
3387 3388 -0.000560900198964181
3388 209 -0.000725519910394542
3388 3387 -0.000288534286733047
3388 3388 0.0187957070663157
3389 209 -0.0166666666666667
3389 3389 0.0177374439856717
3389 3390 -0.000267021979533145
3390 208 0.0
3390 209 0.0
3390 211 -0.0166666666666667
3390 3389 -0.000214133613745064
3390 3390 0.0179665664602573
3391 208 -0.0166666666666667
3391 3391 0.0193465910019366
3391 3392 -0.00118077342883706
3392 3391 -0.00123791262554834
3392 3392 0.0194573127658027
3393 195 -0.0166666666666667
3393 212 -0.000138688174968106
3393 3393 0.0172965222480019
3393 3394 -7.16212299733631e-07
3394 212 -0.000139828019947233
3394 3393 -1.39396279238899e-08
3394 3394 0.017814209838717
3395 210 -0.000458132642260518
3395 212 -0.0166666666666667
3395 1416 0.0
3395 3395 0.01870147129854
3395 3396 -0.000416028776742435
3396 210 -0.000413595834475462
3396 3395 -0.000470424366568322
3396 3396 0.0185800358532766
3397 214 -0.000137976511090807
3397 3397 0.0178142596258037
3397 3398 -3.92675356000534e-06
3398 212 -0.0166666666666667
3398 214 -0.000140539683824532
3398 3397 -7.84777563840381e-07
3398 3398 0.0178691669573259
3399 214 -0.0166666666666667
3399 215 -0.000425027871300158
3399 3399 0.0193348477920876
3399 3400 -0.00116751654000401
3400 215 -0.000445328608699814
3400 3399 -0.00122492972126329
3400 3400 0.0194447290230824
3401 215 -0.0166666666666667
3401 3401 0.0173080151788633
3401 3402 -0.000133996458919445
3402 215 0.0
3402 216 -0.0166666666666667
3402 3401 -2.44742519208693e-05
3402 3402 0.0178636488290152
3402 3403 0.0
3403 215 0.0
3403 216 -0.0166666666666667
3403 217 -0.000138411741521856
3403 3402 0.0
3403 3403 0.0173348621828142
3403 3404 -1.07549290031852e-06
3404 217 -0.000140104453393483
3404 3403 -2.29201529246952e-08
3404 3404 0.0178145692111313
3405 217 -0.0166666666666667
3405 3405 0.0193848567630524
3405 3406 -0.00118151635484325
3406 3405 -0.0012547729333847
3406 3406 0.0194632155620538
3407 208 -0.000138213770503833
3407 211 -0.0166666666666667
3407 3407 0.0173484955878829
3407 3408 -1.33037267977017e-06
3408 208 -0.000140302424411506
3408 3407 -2.94133603610694e-08
3408 3408 0.017814827361894
3409 156 -0.000435089075923097
3409 194 -0.0166666666666667
3409 195 0.0
3409 3409 0.0194637484731424
3409 3410 -0.00125644827298294
3410 156 -0.000435050142023235
3410 195 0.0
3410 196 -0.0166666666666667
3410 3363 0.0
3410 3409 -0.00118167963393036
3410 3410 0.0193888013904019
3411 218 -0.0166666666666667
3411 219 0.000227910657339422
3411 3411 0.0173505484374359
3411 3412 -0.000438375372304428
3412 219 -0.00090084191172836
3412 3411 -4.81359947088406e-05
3412 3412 0.0187218716475071
3413 219 -0.0166666666666667
3413 221 -0.000138562349500048
3413 3413 0.0174078894816094
3413 3414 -9.08696204756823e-07
3414 221 -0.000139953845415291
3414 3413 -2.27986700629731e-08
3414 3414 0.0178144027207977
3415 222 -0.000140073789192541
3415 3415 0.0178145584123696
3415 3416 -2.68131472654642e-08
3416 219 -0.0166666666666667
3416 222 -0.000138442405722798
3416 3415 -1.06316430421145e-06
3416 3416 0.0174078938787148
3417 222 -0.0166666666666667
3417 223 -0.000426922177757431
3417 3417 0.0193423068719834
3417 3418 -0.0011676906149282
3418 223 -0.000443395080957604
3418 3417 -0.00122826345821062
3418 3418 0.0194456917758702
3419 223 -0.0166666666666667
3419 3419 0.0172982030065723
3419 3420 -1.89517763026068e-06
3420 224 -0.0166666666666667
3420 3419 -2.80949763883983e-08
3420 3420 0.0178271977135994
3421 224 -0.0166666666666667
3421 3421 0.0178265008932221
3421 3422 -9.2586284055543e-07
3422 3421 -1.3465755707052e-06
3422 3422 0.0178144080134049
3423 221 -0.0166666666666667
3423 225 -0.000432673706188637
3423 3423 0.0193789566829401
3423 3424 -0.00118148634697722
3424 225 -0.00043751836425937
3424 3423 -0.00125221572856264
3424 3424 0.0194624944824026
3425 226 -0.000138321121970871
3425 227 -0.0166666666666667
3425 3425 0.0173041495432517
3425 3426 -1.17449727533117e-06
3425 3472 0.0
3426 226 -0.000140195072944468
3426 3425 -2.35385803949072e-08
3426 3426 0.0178146675901049
3427 228 -0.0166666666666667
3427 229 -0.000138286695318051
3427 3427 0.0172964393825065
3427 3428 -1.21306525215112e-06
3428 229 -0.000140229499597288
3428 3427 -2.39719255799684e-08
3428 3428 0.0178147059627193
3429 229 -0.0166666666666667
3429 231 -0.000139258097008662
3429 3429 0.0178144318165065
3429 3430 -9.33801691611406e-07
3430 231 -0.000139258097906677
3430 3429 -9.33801051164943e-07
3430 3430 0.0178144318606493
3431 232 -0.000435069409759835
3431 3431 0.0194636343488718
3431 3432 -0.00125640863633869
3432 229 -0.0166666666666667
3432 232 -0.000435069374755895
3432 3431 -0.0011814811086838
3432 3432 0.0193887067279609
3433 231 -0.0166666666666667
3433 234 -0.000435069370488566
3433 3433 0.019388780895268
3433 3434 -0.00118155528731558
3434 234 -0.000435069414123279
3434 3433 -0.00125648448071444
3434 3434 0.0194637102049162
3435 226 -0.000138900280797983
3435 234 -0.0166666666666667
3435 3435 0.0172964152304735
3435 3436 -4.2708772075582e-07
3436 187 0.0
3436 226 -0.000139615914117356
3436 233 0.0
3436 234 0.0
3436 235 -0.0166666666666667
3436 3435 -9.47803391050106e-09
3436 3436 0.0177496011881496
3436 3437 0.0
3437 233 -0.000138910497854425
3437 235 -0.0166666666666667
3437 3436 0.0
3437 3437 0.0177492266992977
3437 3438 -5.17602927754366e-07
3438 233 -0.000139605697060914
3438 3437 -4.96642740357883e-08
3438 3438 0.0178140137848852
3439 187 -0.000435082183658245
3439 233 -0.0166666666666667
3439 3439 0.0194636050822588
3439 3440 -0.0012563353189012
3440 187 -0.000435056882388395
3440 3439 -0.00118148880805279
3440 3440 0.0193886425635054
3441 232 -0.0166666666666667
3441 237 -0.000138287341133016
3441 3441 0.0172964396325578
3441 3442 -1.21226845353324e-06
3442 237 -0.000140228853782323
3442 3441 -2.39557312619154e-08
3442 3442 0.017814705192105
3443 187 -0.000435077576153311
3443 237 -0.0166666666666667
3443 3443 0.0194636498694089
3443 3444 -0.0012563867348945
3444 187 -0.00043506138836283
3444 226 0.0
3444 236 0.0
3444 237 0.0
3444 238 -0.0166666666666667
3444 3443 -0.00118156237601487
3444 3444 0.0193887513139222
3444 3445 0.0
3445 236 -0.000435085186467014
3445 238 -0.0166666666666667
3445 3444 0.0
3445 3445 0.0194636876903557
3445 3446 -0.00125640800692181
3446 236 -0.000435053945729502
3446 3445 -0.00118157615129436
3446 3446 0.0193887125978184
3447 226 -0.000138286771859714
3447 236 -0.0166666666666667
3447 3447 0.0172964396537818
3447 3448 -1.21297096046397e-06
3448 226 -0.000140229423055625
3448 3447 -2.39700195293086e-08
3448 3448 0.0178147058843059
3449 240 -0.000435249329951152
3449 241 -0.0166666666666667
3449 3449 0.0194669892927518
3449 3450 -0.00125913754523843
3450 240 -0.000434893408363734
3450 3449 -0.00118530039028567
3450 3450 0.0193915247098193
3451 240 -0.0166666666666667
3451 3451 0.0172960984745375
3451 3452 -1.06367312891359e-06
3452 240 0.0
3452 242 -0.0166666666666667
3452 3451 -2.13609391405069e-08
3452 3452 0.017805654691444
3452 3469 0.0
3453 239 -0.0166666666666667
3453 3453 0.0173098191165471
3453 3454 -1.16342624068747e-06
3454 3453 -2.33466429807203e-08
3454 3454 0.017814949594545
3455 226 -0.0166666666666667
3455 243 -0.000435072120349481
3455 3455 0.0194633204071541
3455 3456 -0.00125608526726809
3456 243 -0.000435066723923214
3456 3455 -0.00118118203409812
3456 3456 0.0193883924273125
3457 241 -0.000138291831741705
3457 243 -0.0166666666666667
3457 3457 0.0172964811115928
3457 3458 -1.2067501286458e-06
3458 241 -0.000140224363173634
3458 3457 -2.38453400472707e-08
3458 3458 0.0178147008765491
3459 245 -0.000140221824647694
3459 3459 0.0178146978498745
3459 3460 -2.37816257834915e-08
3460 243 -0.0166666666666667
3460 245 -0.000138294370267645
3460 3459 -1.20361727918045e-06
3460 3460 0.0172964810525967
3461 245 -0.0166666666666667
3461 246 -0.000435344407954329
3461 3461 0.0194659176105032
3461 3462 -0.00125773914717291
3462 246 -0.000434800430411269
3462 3461 -0.0011845162058521
3462 3462 0.0193902105162143
3463 246 -0.0166666666666667
3463 3463 0.0172962783354724
3463 3464 -1.09032448231276e-06
3464 246 0.0
3464 247 -0.0166666666666667
3464 3463 -2.18342668490586e-08
3464 3464 0.0178073744716655
3464 3465 0.0
3465 246 0.0
3465 247 -0.0166666666666667
3465 248 -0.000432078300694966
3465 3464 0.0
3465 3465 0.0193010409680071
3465 3466 -0.00110662888765545
3466 248 -0.000438133229980574
3466 3465 -0.00117438144583154
3466 3466 0.0193848162965538
3467 248 -0.0166666666666667
3467 3467 0.0173066829056823
3467 3468 -1.17850668810495e-06
3468 3467 -2.35026937709481e-08
3468 3468 0.0178149746842341
3469 239 -0.000431364756974582
3469 240 0.0
3469 242 -0.0166666666666667
3469 3452 0.0
3469 3469 0.0192763238295202
3469 3470 -0.0010849224896439
3470 239 -0.000438866309542755
3470 3469 -0.00115086473839518
3470 3470 0.0193620926343772
3471 187 -0.000138286177937991
3471 225 -0.0166666666666667
3471 226 0.0
3471 3471 0.0172964883975278
3471 3472 -1.0186321115859e-06
3472 187 -0.000140230016977348
3472 226 0.0
3472 227 -0.0166666666666667
3472 3425 0.0
3472 3471 -9.23842913120058e-08
3472 3472 0.0173051440367492
3473 249 -0.0166666666666667
3473 250 -0.000435073349340888
3473 3473 0.0194633765819713
3473 3474 -0.00125613733340556
3474 250 -0.000435065522020417
3474 3473 -0.00118123987997616
3474 3474 0.019388443234893
3475 250 -0.0166666666666667
3475 252 -0.000138288861702206
3475 3475 0.017296474392519
3475 3476 -1.21041044884479e-06
3476 252 -0.000140227333213133
3476 3475 -2.39195397112311e-08
3476 3476 0.0178147032886922
3477 253 -0.000140228210971901
3477 3477 0.01781470486782
3477 3478 -2.3941557046869e-08
3478 250 -0.0166666666666667
3478 253 -0.000138287983943439
3478 3477 -1.21149428933204e-06
3478 3478 0.0172964744463235
3479 253 -0.0166666666666667
3479 254 -0.000435109649626736
3479 3479 0.0194493813662804
3479 3480 -0.00124201442563576
3480 254 -0.000435030036925323
3480 3479 -0.0011676707728496
3480 3480 0.0193746726576544
3481 254 -0.0166666666666667
3481 3481 0.0173081303334151
3481 3482 -0.000133924491696817
3482 255 -0.0166666666666667
3482 3481 -2.44868683853623e-05
3482 3482 0.0178635877956252
3483 255 -0.0166666666666667
3483 3483 0.0173348654764516
3483 3484 -1.04752868600601e-06
3484 3483 -2.23062641979708e-08
3484 3484 0.0178145411980304
3485 252 -0.0166666666666667
3485 256 -0.000435144484966556
3485 3485 0.019461568056381
3485 3486 -0.00125408416347905
3486 256 -0.000434995958682277
3486 3485 -0.00117967106973176
3486 3486 0.0193864744856199
3487 257 -0.0001383929458633
3487 258 -0.0166666666666667
3487 3487 0.0173052664826232
3487 3488 -1.08598665496889e-06
3487 3534 0.0
3488 257 -0.00014012324905204
3488 3487 -2.17638922762433e-08
3488 3488 0.0178145535889315
3489 259 -0.0166666666666667
3489 260 -0.000138287057706326
3489 3489 0.0172964394567506
3489 3490 -1.21261808844727e-06
3490 260 -0.000140229137209013
3490 3489 -2.39628351519636e-08
3490 3490 0.0178147055141749
3491 260 -0.0166666666666667
3491 262 -0.000139258438339455
3491 3491 0.0178144664524045
3491 3492 -9.34435514417231e-07
3492 262 -0.000139257756575884
3492 3491 -9.35528049442036e-07
3492 3492 0.0178144323723362
3493 263 -0.000435056164326672
3493 3493 0.0193882988824195
3493 3494 -0.00118114930153955
3494 260 -0.0166666666666667
3494 263 -0.000435082918027994
3494 3493 -0.00125598375468558
3494 3494 0.019463256003625
3495 262 -0.0166666666666667
3495 265 -0.000435046243704918
3495 3495 0.0193887645192647
3495 3496 -0.00118164241777987
3496 265 -0.000435093061865262
3496 3495 -0.00125653020767648
3496 3496 0.0194637770279469
3497 257 -0.000138921815209089
3497 265 -0.0166666666666667
3497 3497 0.0172964018029033
3497 3498 -4.01772060623746e-07
3498 218 0.0
3498 257 -0.00013959437970625
3498 264 0.0
3498 265 0.0
3498 266 -0.0166666666666667
3498 3497 -8.89114618565386e-09
3498 3498 0.0177503217815942
3498 3499 0.0
3499 264 -0.00013894067037731
3499 266 -0.0166666666666667
3499 3498 0.0
3499 3499 0.0177499929679008
3499 3500 -4.74216741479886e-07
3500 264 -0.000139575524538029
3500 3499 -4.61429010297917e-08
3500 3500 0.0178139754223666
3501 218 -0.000438392776826465
3501 264 -0.0166666666666667
3501 3501 0.0194038024150119
3501 3502 -0.00118521045340098
3502 218 -0.000431826121382375
3502 3501 -0.00113136000392566
3502 3502 0.0193210677155512
3503 263 -0.0166666666666667
3503 268 -0.000138421511330617
3503 3503 0.0172964913696201
3503 3504 -1.04675229678023e-06
3504 268 -0.000140094683584722
3504 3503 -2.05948470749522e-08
3504 3504 0.0178145500428798
3505 218 -0.000436721410041992
3505 268 -0.0166666666666667
3505 3505 0.0194122813378182
3505 3506 -0.00119664955180344
3506 218 -0.000433458024629497
3506 257 0.0
3506 267 0.0
3506 268 0.0
3506 269 -0.0166666666666667
3506 3505 -0.00114346492577733
3506 3506 0.0193456144785292
3506 3507 0.0
3507 267 -0.00043879640423705
3507 269 -0.0166666666666667
3507 3506 0.0
3507 3507 0.0194759659828978
3507 3508 -0.00125613199041933
3508 267 -0.000431424781290872
3508 3507 -0.0012023529597498
3508 3508 0.0193898784861901
3509 257 -0.000138356769775534
3509 267 -0.0166666666666667
3509 3509 0.0172964538951551
3509 3510 -1.12653151422049e-06
3510 257 -0.000140159425139805
3510 3509 -2.22158902483322e-08
3510 3510 0.0178145939457223
3511 271 -0.000135274543056306
3511 272 -0.0166666666666667
3511 3511 0.0173314540736371
3511 3512 -5.01444248842295e-06
3512 271 -0.000143241651859033
3512 3511 -1.09865934611585e-07
3512 3512 0.0178188430592681
3513 271 -0.0166666666666667
3513 3513 0.0191833679361077
3513 3514 -0.00115255810703607
3514 271 0.0
3514 273 -0.0166666666666667
3514 3513 -0.00116695965850981
3514 3514 0.0193073017106333
3514 3531 0.0
3515 270 -0.0166666666666667
3515 3515 0.0172969314941423
3515 3516 -1.21051376505055e-06
3516 3515 -2.39425929155972e-08
3516 3516 0.017814703423261
3517 257 -0.0166666666666667
3517 274 -0.000438096223299876
3517 3517 0.0190415627118516
3517 3518 -0.000823587259891797
3518 274 -0.000432167718169456
3518 3517 -0.000780602612534949
3518 3518 0.0189719852118625
3519 272 0.000218484783290129
3519 274 -0.0166666666666667
3519 3519 0.0174669495140969
3519 3520 -0.000477370877328551
3520 272 -0.000891416037679068
3520 3519 -0.000100890785221647
3520 3520 0.0187551209753296
3521 276 -0.000139701772394438
3521 3521 0.0178140970873433
3521 3522 -1.29861811110762e-08
3522 274 -0.0166666666666667
3522 276 -0.000138814422520902
3522 3521 -5.75941857140059e-07
3522 3522 0.0173691987550076
3523 276 -0.0166666666666667
3523 277 -0.000453058027683075
3523 3523 0.0195228637533087
3523 3524 -0.00125491318191218
3524 277 -0.000417478867706813
3524 3523 -0.00126248812464285
3524 3524 0.0193932789336803
3525 277 -0.0166666666666667
3525 3525 0.0172966662190473
3525 3526 -9.72291627814047e-06
3526 277 0.0
3526 278 -0.0166666666666667
3526 3525 -1.21413434559184e-07
3526 3526 0.0179398884476568
3526 3527 0.0
3527 277 0.0
3527 278 -0.0166666666666667
3527 279 -0.000142683907585936
3527 3526 0.0
3527 3527 0.0179358412564323
3527 3528 -3.14581136116587e-07
3528 279 -0.000135832287329404
3528 3527 -5.64926759529481e-06
3528 3528 0.0178138319445949
3529 279 -0.0166666666666667
3529 3529 0.0193703856784436
3529 3530 -0.00118120734927351
3530 3529 -0.0012484463214622
3530 3530 0.0194604805412336
3531 270 -0.000404324480174985
3531 271 0.0
3531 273 -0.0166666666666667
3531 3514 0.0
3531 3531 0.0192675040792686
3531 3532 -0.00117513383093279
3532 270 -0.000466398849792141
3532 3531 -0.00119991065467066
3532 3532 0.0194438480854112
3533 218 -0.000139062002018278
3533 256 -0.0166666666666667
3533 3533 0.0172967403401987
3533 3534 -2.04715316608505e-07
3534 218 -0.000139454192897062
3534 256 0.0
3534 257 0.0
3534 258 -0.0166666666666667
3534 3487 0.0
3534 3533 -1.76667226349783e-08
3534 3534 0.0173054598817215
3535 280 -0.0166666666666667
3535 281 -0.000439266035090063
3535 3535 0.0193599440196801
3535 3536 -0.00113826801298031
3536 281 -0.000430980363867674
3536 3535 -0.00109077905797679
3536 3536 0.0192764807436609
3537 281 -0.0166666666666667
3537 283 -0.000138409864927514
3537 3537 0.0173126649368886
3537 3538 -1.06837091099441e-06
3538 283 -0.000140106329987825
3538 3537 -2.17199105747271e-08
3538 3538 0.0178145668888615
3539 284 -0.000908412435934919
3539 3539 0.0187342109887929
3539 3540 -5.70571543832925e-05
3540 281 -0.0166666666666667
3540 284 0.000235481181545981
3540 3539 -0.000453812468447541
3540 3540 0.017366239482672
3541 284 -0.0166666666666667
3541 285 -0.000127171097759716
3541 3541 0.0173902726296936
3541 3542 -1.55576690925165e-05
3542 285 -0.000545760156629223
3542 3541 -6.12977187708155e-06
3542 3542 0.0183343607413548
3543 285 -0.0166666666666667
3543 3543 0.0190435224881784
3543 3544 -0.0011191014843119
3544 286 -0.0166666666666667
3544 3543 -0.00109812319463792
3544 3544 0.0192002058717035
3545 286 -0.0166666666666667
3545 3545 0.0191810336689014
3545 3546 -0.00117547931931091
3546 3545 -0.00116112314020397
3546 3546 0.0194335300141192
3547 283 -0.0166666666666667
3547 287 -0.000437288207604906
3547 3547 0.0194710205889398
3547 3548 -0.00125626108720282
3548 287 -0.000432899576991383
3548 3547 -0.00119426072742205
3548 3548 0.0193894446405454
3549 288 -0.000138910479291025
3549 289 -0.0166666666666667
3549 3549 0.017749226579455
3549 3550 -5.17630044729357e-07
3549 3596 0.0
3550 288 -0.000139605715624314
3550 3549 -4.96668406936043e-08
3550 3550 0.0178140137898684
3551 290 -0.0166666666666667
3551 291 -0.000435069384775872
3551 3551 0.019388441860489
3551 3552 -0.00118121619509623
3552 291 -0.000435069399514123
3552 3551 -0.00125613777143264
3552 3552 0.019463363476091
3553 291 -0.0166666666666667
3553 293 -0.000138286857240759
3553 3553 0.0172964743991943
3553 3554 -1.21288412910186e-06
3554 293 -0.000140229337674581
3554 3553 -2.39698478178092e-08
3554 3554 0.0178147057825198
3555 294 -0.000140229336589824
3555 3555 0.0178147057811399
3555 3556 -2.39698205914474e-08
3556 291 -0.0166666666666667
3556 294 -0.000138286858325515
3556 3555 -1.21288279038434e-06
3556 3556 0.0172964743991641
3557 293 -0.0166666666666667
3557 296 -0.000435069349700356
3557 3557 0.0193887089999776
3557 3558 -0.00118148348379684
3558 296 -0.000435069435379968
3558 3557 -0.00125641102065625
3558 3558 0.019463636765101
3559 288 -0.000138288220944727
3559 295 0.0
3559 296 -0.0166666666666667
3559 3559 0.0172964392990828
3559 3560 -1.21107464035149e-06
3560 288 -0.000140227973970612
3560 295 0.0
3560 297 -0.0166666666666667
3560 3559 -2.39365198406219e-08
3560 3560 0.0178146126504962
3560 3561 0.0
3561 295 -0.000435032785443368
3561 297 -0.0166666666666667
3561 3560 0.0
3561 3561 0.0193885562632203
3561 3562 -0.00118148076820924
3562 295 -0.000435106823406514
3562 3561 -0.00125634370176468
3562 3562 0.0194636164222988
3563 249 -0.000138286802031117
3563 295 -0.0166666666666667
3563 3563 0.017296439412179
3563 3564 -1.21293358252936e-06
3564 249 -0.000140229392884223
3564 3563 -2.39692490633551e-08
3564 3564 0.0178147058331974
3565 294 -0.0166666666666667
3565 299 -0.000435069389550789
3565 3565 0.0193887087038398
3565 3566 -0.00118148301966638
3566 299 -0.000435069394631555
3566 3565 -0.0012564106177369
3566 3566 0.0194636363154463
3567 249 -0.000138288034558564
3567 298 0.0
3567 299 -0.0166666666666667
3567 3567 0.0172964393658351
3567 3568 -1.21130492256925e-06
3568 249 -0.000140228160356775
3568 298 0.0
3568 300 -0.0166666666666667
3568 3567 -2.39411949136597e-08
3568 3568 0.0178146130952496
3568 3569 0.0
3569 298 -0.000435032864937971
3569 300 -0.0166666666666667
3569 3568 0.0
3569 3569 0.0193885572616325
3569 3570 -0.00118148144433874
3570 298 -0.000435106742120615
3570 3569 -0.00125634453230068
3570 3570 0.0194636171468662
3571 288 -0.000138286985838064
3571 298 -0.0166666666666667
3571 3571 0.0172964393185635
3571 3572 -1.21270668854361e-06
3572 288 -0.000140229209077275
3572 3571 -2.39646313460681e-08
3572 3572 0.0178147055904162
3573 302 -0.000434132277678501
3573 303 -0.0166666666666667
3573 3573 0.0193531525591996
3573 3574 -0.00114985437531919
3574 302 -0.00043602835148291
3574 3573 -0.00122237998046725
3574 3574 0.0194307215840397
3575 302 -0.0166666666666667
3575 3575 0.0173112910791178
3575 3576 -0.000138259363976047
3576 302 0.0
3576 304 -0.0166666666666667
3576 3575 -2.53865277378717e-05
3576 3576 0.0178692219185751
3576 3593 0.0
3577 301 -0.0166666666666667
3577 3577 0.0193634106903348
3577 3578 -0.00118108829657001
3578 3577 -0.00124536794862644
3578 3578 0.0194595580860946
3579 288 -0.0166666666666667
3579 305 -0.000435080307367357
3579 3579 0.0194631053165026
3579 3580 -0.00125584229113299
3580 305 -0.000435058717463835
3580 3579 -0.00118099345597813
3580 3580 0.0193881574845414
3581 303 -0.000138261308742497
3581 305 -0.0166666666666667
3581 3581 0.0172965129995373
3581 3582 -1.2444300173999e-06
3582 303 -0.000140254886172842
3582 3581 -2.46134321847894e-08
3582 3582 0.0178147384368371
3583 307 -0.000140249996876446
3583 3583 0.0178147321831835
3583 3584 -2.4490657466603e-08
3584 305 -0.0166666666666667
3584 307 -0.000138266198038894
3584 3583 -1.2383975888695e-06
3584 3584 0.0172965128605245
3585 307 -0.0166666666666667
3585 308 -0.000434308830151222
3585 3585 0.0193565238209872
3585 3586 -0.00115249078341497
3586 308 -0.000435847642640103
3586 3585 -0.00122539181987883
3586 3586 0.019433519847512
3587 308 -0.0166666666666667
3587 3587 0.0173108110594776
3587 3588 -0.00013763574608291
3588 308 0.0
3588 309 -0.0166666666666667
3588 3587 -2.52486229488127e-05
3588 3588 0.0178684051236191
3588 3589 0.0
3589 308 0.0
3589 309 -0.0166666666666667
3589 310 -0.000138290733115795
3589 3588 0.0
3589 3589 0.0173357792454708
3589 3590 -1.22767817853369e-06
3590 310 -0.000140225461799544
3590 3589 -2.6322788202708e-08
3590 3590 0.0178147220760386
3591 310 -0.0166666666666667
3591 3591 0.0193641798191389
3591 3592 -0.00118110177773261
3592 3591 -0.00124570775063777
3592 3592 0.0194596602746646
3593 301 -0.000138286150728847
3593 302 0.0
3593 304 -0.0166666666666667
3593 3576 0.0
3593 3593 0.0173359378634118
3593 3594 -1.23349701123618e-06
3594 301 -0.000140230044186492
3594 3593 -2.64605452289241e-08
3594 3594 0.0178147283869216
3595 249 -0.000138900326717328
3595 287 -0.0166666666666667
3595 288 0.0
3595 3595 0.0172964334581704
3595 3596 -4.27036318179888e-07
3596 249 -0.000139615868198012
3596 288 0.0
3596 289 -0.0166666666666667
3596 3549 0.0
3596 3595 -9.47724450009742e-09
3596 3596 0.0177496010208582
3597 311 -0.0166666666666667
3597 312 -0.000435230978617208
3597 3597 0.0188851999358167
3597 3598 -0.000676915827627738
3598 312 -0.00043491685500089
3598 3597 -0.000625665684806613
3598 3598 0.0188324700803032
3599 312 -0.0166666666666667
3599 314 -0.000138672805722982
3599 3599 0.0174062618030442
3599 3600 -7.65758079538392e-07
3600 314 -0.000139843389192358
3600 3599 -1.90292129986387e-08
3600 3600 0.0178142630176348
3601 315 -0.00080740287367934
3601 3601 0.0187657876890419
3601 3602 -0.000183874244209535
3602 312 -0.0166666666666667
3602 315 1.13200250901338e-05
3602 3601 -0.000512856477472066
3602 3602 0.0177330719708947
3603 315 -0.0166666666666667
3603 316 -0.000135236534922173
3603 3603 0.0173279989505248
3603 3604 -5.05928267052957e-06
3604 316 -0.000143279659993166
3604 3603 -1.09940048199017e-07
3604 3604 0.0178189142473272
3605 316 -0.0166666666666667
3605 3605 0.0191837857182393
3605 3606 -0.00115261551048108
3606 317 -0.0166666666666667
3606 3605 -0.00116715933513682
3606 3606 0.0193075009319374
3607 317 -0.0166666666666667
3607 3607 0.0192715504217955
3607 3608 -0.00117898318247606
3608 3607 -0.00120392392385178
3608 3608 0.0194477863404796
3609 314 -0.0166666666666667
3609 318 -0.000439089523234417
3609 3609 0.0194766610463366
3609 3610 -0.00125584159818315
3610 318 -0.00043113819096397
3610 3609 -0.00120362759000766
3610 3610 0.0193897157787361
3611 319 -0.000434939106055095
3611 320 -0.0166666666666667
3611 3611 0.0193916866829711
3611 3612 -0.00118504095738583
3611 3658 0.0
3612 319 -0.000435202598868165
3612 3611 -0.00125980517520124
3612 3612 0.0194671524144862
3613 321 -0.0166666666666667
3613 322 -0.000138286681738492
3613 3613 0.0172964393783542
3613 3614 -1.21308200605217e-06
3614 322 -0.000140229513176847
3614 3613 -2.39722661869433e-08
3614 3614 0.017814705978151
3615 322 -0.0166666666666667
3615 324 -0.000435068884552578
3615 3615 0.0193887306635155
3615 3616 -0.00118150726982913
3616 324 -0.000435069911008903
3616 3615 -0.00125643445841803
3616 3616 0.0194636605867375
3617 325 -0.000139258110569624
3617 3617 0.0178144315994149
3617 3618 -9.33513688391224e-07
3618 322 -0.0166666666666667
3618 325 -0.000139258084345715
3618 3617 -9.33532497936933e-07
3618 3618 0.017814430309871
3619 324 -0.0166666666666667
3619 327 -0.000138279010834734
3619 3619 0.0172964363725471
3619 3620 -1.22254521804739e-06
3620 327 -0.000140237184080605
3620 3619 -2.41646447299009e-08
3620 3620 0.0178147146809073
3621 319 -0.000434989974486818
3621 326 0.0
3621 327 -0.0166666666666667
3621 3621 0.0193910369733676
3621 3622 -0.00118493531740329
3622 319 -0.000435150588304691
3622 326 0.0
3622 328 -0.0166666666666667
3622 3621 -0.00125956508747497
3622 3622 0.0194660938610287
3622 3623 0.0
3623 326 -0.000434872688531395
3623 328 -0.0166666666666667
3623 3622 0.0
3623 3623 0.0193875426795062
3623 3624 -0.00118112078544254
3624 326 -0.000435270525342987
3624 3623 -0.00125569402526471
3624 3624 0.0194631751705502
3625 280 -0.000138392691801889
3625 326 -0.0166666666666667
3625 3625 0.017296483272732
3625 3626 -1.08242332728666e-06
3626 280 -0.00014012350311345
3626 3625 -2.13161584771943e-08
3626 3626 0.0178145871202938
3627 325 -0.0166666666666667
3627 330 -0.000435080068461046
3627 3627 0.0194635173256733
3627 3628 -0.00125625483745251
3628 330 -0.000435058950989111
3628 3627 -0.00118139703309712
3628 3628 0.0193885626932315
3629 280 -0.000138936896109547
3629 329 0.0
3629 330 -0.0166666666666667
3629 3629 0.0172964444175749
3629 3630 -3.83811097196055e-07
3630 280 -0.000139579298805792
3630 329 0.0
3630 331 -0.0166666666666667
3630 3629 -8.49107878174372e-09
3630 3630 0.0177500579653602
3630 3631 0.0
3631 329 -0.000138909064929736
3631 331 -0.0166666666666667
3631 3630 0.0
3631 3631 0.0177497183126398
3631 3632 -5.20324482162036e-07
3632 329 -0.000139607129985604
3632 3631 -5.0460038119317e-08
3632 3632 0.0178140160927331
3633 319 -0.000434898044278315
3633 329 -0.0166666666666667
3633 3633 0.0193915158406327
3633 3634 -0.0011850385697024
3634 319 -0.000435244580342166
3634 3633 -0.00125973026995558
3634 3634 0.0194671300235447
3635 333 -0.000437741651795112
3635 334 -0.0166666666666667
3635 3635 0.0194580790950914
3635 3636 -0.00124178531210186
3636 333 -0.000432457178334933
3636 3635 -0.00118263497490539
3636 3636 0.0193754724111637
3637 333 -0.0166666666666667
3637 3637 0.0173081480358037
3637 3638 -0.000133922698934495
3638 333 0.0
3638 335 -0.0166666666666667
3638 3637 -2.44895773689186e-05
3638 3638 0.0178635891343981
3638 3655 0.0
3639 332 -0.0166666666666667
3639 3639 0.0193849898137051
3639 3640 -0.00118151827368069
3640 3639 -0.00125483132565948
3640 3640 0.0194632328928431
3641 319 -0.0166666666666667
3641 336 -0.000134626819469843
3641 3641 0.0172960572372911
3641 3642 -5.67482454003338e-06
3642 336 -0.000143889375445496
3642 3641 -1.17224517748718e-07
3642 3642 0.0178189579824736
3643 334 -0.000138908713201794
3643 336 -0.0166666666666667
3643 3643 0.0177036794314483
3643 3644 -4.99375406901578e-07
3644 334 -0.000139607481713545
3644 3643 -3.06504126162401e-08
3644 3644 0.0178139944442498
3645 338 -0.000597713125202172
3645 3645 0.0184421024561669
3645 3646 -2.40246210218283e-05
3646 336 -0.0166666666666667
3646 338 -7.52181291867667e-05
3646 3645 -8.9416539499609e-05
3646 3646 0.0177137736588957
3647 338 -0.0166666666666667
3647 339 -0.000242422521139187
3647 3647 0.0186079235147509
3647 3648 -0.000925379800643584
3648 339 -0.000626419769058527
3648 3647 -0.00075038038043691
3648 3648 0.0191586075383835
3649 339 -0.0166666666666667
3649 3649 0.0177029162142694
3649 3650 -0.000245143979550067
3650 339 0.0
3650 340 -0.0166666666666667
3650 341 0.0
3650 3649 -0.000193968097316908
3650 3650 0.0179475102930651
3651 340 -0.0166666666666667
3651 341 -0.000138219319560301
3651 3651 0.0173460971401947
3651 3652 -1.32223121416674e-06
3652 341 -0.000140296875355038
3652 3651 -2.90712390925789e-08
3652 3652 0.0178148169771683
3653 341 -0.0166666666666667
3653 3653 0.0193485878399233
3653 3654 -0.00118081271609364
3654 3653 -0.00123880031430751
3654 3654 0.0194575794108942
3655 332 -0.000138412525549366
3655 333 0.0
3655 335 -0.0166666666666667
3655 3638 0.0
3655 3655 0.0173348680988957
3655 3656 -1.07451126571116e-06
3656 332 -0.000140103669365973
3656 3655 -2.28988835753831e-08
3656 3656 0.0178145682418864
3657 280 -0.000138396653973258
3657 318 -0.0166666666666667
3657 319 0.0
3657 3657 0.0172964916757554
3657 3658 -1.07696768404692e-06
3658 280 -0.000140119540942081
3658 319 0.0
3658 320 -0.0166666666666667
3658 3611 0.0
3658 3657 -2.12265241915648e-08
3658 3658 0.0178142558899386
3659 342 -0.0166666666666667
3659 343 0.000227909367425478
3659 3659 0.0173505501235237
3659 3660 -0.000438374207210451
3660 343 -0.000900840621814417
3660 3659 -4.81361186863989e-05
3660 3660 0.0187218708288804
3661 343 -0.0166666666666667
3661 345 -0.000138561533653604
3661 3661 0.0174078891209919
3661 3662 -9.09747619509022e-07
3662 345 -0.000139954661261736
3662 3661 -2.28259192699079e-08
3662 3662 0.0178144035116545
3663 346 -0.000140073790975437
3663 3663 0.0178145584149139
3663 3664 -2.68131811843164e-08
3664 343 -0.0166666666666667
3664 346 -0.000138442403939902
3664 3663 -1.06316648366329e-06
3664 3664 0.0174078935255252
3665 346 -0.0166666666666667
3665 347 -0.000426922132602362
3665 3665 0.0193423066886314
3665 3666 -0.00116769060685688
3666 347 -0.000443395127058409
3666 3665 -0.00122826337417719
3666 3666 0.0194456917479709
3667 347 -0.0166666666666667
3667 3667 0.0172982030071984
3667 3668 -1.89517762455053e-06
3668 348 -0.0166666666666667
3668 3667 -2.80949763384092e-08
3668 3668 0.0178271977135737
3669 348 -0.0166666666666667
3669 3669 0.0178265008932003
3669 3670 -9.25862840600532e-07
3670 3669 -1.34657556992854e-06
3670 3670 0.0178144080134049
3671 345 -0.0166666666666667
3671 349 -0.000432632949803904
3671 3671 0.0193791533646125
3671 3672 -0.00118186375443278
3672 349 -0.000437559988660471
3672 3671 -0.00125252599578477
3672 3672 0.0194628395316311
3673 350 -0.000138910179724992
3673 351 -0.0166666666666667
3673 3673 0.0177492492651219
3673 3674 -5.18097724412703e-07
3673 3720 0.0
3674 350 -0.000139606015190347
3674 3673 -4.9736768171531e-08
3674 3674 0.0178140141000072
3675 352 -0.0166666666666667
3675 353 -0.000435068797728624
3675 3675 0.0193884456522795
3675 3676 -0.00118122256043728
3676 353 -0.000435069999793928
3676 3675 -0.00125614319532225
3676 3676 0.0194633694896899
3677 353 -0.0166666666666667
3677 355 -0.000138286799402304
3677 3677 0.0172964735664216
3677 3678 -1.21295504750436e-06
3678 355 -0.000140229395513035
3678 3677 -2.39712525939313e-08
3678 3678 0.0178147058424522
3679 356 -0.000140230675700951
3679 3679 0.017814707104958
3679 3680 -2.40033947134963e-08
3680 353 -0.0166666666666667
3680 356 -0.000138285519214388
3680 3679 -1.21453449198612e-06
3680 3680 0.0172964735804192
3681 355 -0.0166666666666667
3681 358 -0.000435067422348721
3681 3681 0.0193887186536987
3681 3682 -0.00118150164198114
3682 358 -0.000435071406160562
3682 3681 -0.00125642600972211
3682 3682 0.0194636536348554
3683 350 -0.00013828940227601
3683 357 0.0
3683 358 -0.0166666666666667
3683 3683 0.0172964368900012
3683 3684 -1.20943312255959e-06
3684 350 -0.000140226792639329
3684 357 0.0
3684 359 -0.0166666666666667
3684 3683 -2.39116221440321e-08
3684 3684 0.0178144561861929
3684 3685 0.0
3685 357 -0.000434971272637178
3685 359 -0.0166666666666667
3685 3684 0.0
3685 3685 0.0193887674296498
3685 3686 -0.00118196873889853
3686 357 -0.000435169719904374
3686 3685 -0.00125672688730438
3686 3686 0.0194640540700679
3687 311 -0.000138283460799557
3687 357 -0.0166666666666667
3687 3687 0.0172963729770982
3687 3688 -1.21696226254563e-06
3688 311 -0.000140232734115782
3688 3687 -2.4050899273356e-08
3688 3688 0.0178146602550902
3689 356 -0.0166666666666667
3689 361 -0.000435021975200768
3689 3689 0.0193888428280263
3689 3690 -0.00118183170521554
3690 361 -0.000435117876636681
3690 3689 -0.00125667755640774
3690 3690 0.0194639441233024
3691 311 -0.000138290545167625
3691 360 0.0
3691 361 -0.0166666666666667
3691 3691 0.0172963909933038
3691 3692 -1.20762219986995e-06
3692 311 -0.000140225649747715
3692 360 0.0
3692 362 -0.0166666666666667
3692 3691 -2.38904374634854e-08
3692 3692 0.0178141341272458
3692 3693 0.0
3693 360 -0.000434863912658682
3693 362 -0.0166666666666667
3693 3692 0.0
3693 3693 0.01938788786228
3693 3694 -0.00118150745952063
3694 360 -0.000435279496392151
3694 3693 -0.00125607230703734
3694 3694 0.0194635591497266
3695 350 -0.000138286064088547
3695 360 -0.0166666666666667
3695 3695 0.0172964346444417
3695 3696 -1.21384147158235e-06
3696 350 -0.000140230130826792
3696 3695 -2.39875039867713e-08
3696 3696 0.0178147065643663
3697 364 -0.000435249227300769
3697 365 -0.0166666666666667
3697 3697 0.0194669889560542
3697 3698 -0.00125913755896959
3698 364 -0.000434893508757877
3698 3697 -0.00118529978595172
3698 3698 0.0193915246813111
3699 364 -0.0166666666666667
3699 3699 0.017296098473263
3699 3700 -1.06367313562378e-06
3700 364 0.0
3700 366 -0.0166666666666667
3700 3699 -2.13609392236132e-08
3700 3700 0.0178056546915008
3700 3717 0.0
3701 363 -0.0166666666666667
3701 3701 0.0173098191165335
3701 3702 -1.16342624074817e-06
3702 3701 -2.33466429813018e-08
3702 3702 0.0178149495945451
3703 350 -0.0166666666666667
3703 367 -0.000435047841600877
3703 3703 0.0193883041569686
3703 3704 -0.00118116640188501
3704 367 -0.000435091428270092
3704 3703 -0.0012560489699919
3704 3704 0.0194633028406514
3705 365 -0.000138291826977173
3705 367 -0.0166666666666667
3705 3705 0.0172964806846983
3705 3706 -1.20675578133157e-06
3706 365 -0.000140224367938166
3706 3705 -2.38454355521033e-08
3706 3706 0.0178147008816652
3707 369 -0.000140221834450205
3707 3707 0.0178146978602928
3707 3708 -2.37818478129987e-08
3708 367 -0.0166666666666667
3708 369 -0.000138294360465134
3708 3707 -1.20362914934833e-06
3708 3708 0.0172964806257772
3709 369 -0.0166666666666667
3709 370 -0.000435344118977629
3709 3709 0.0194659166622981
3709 3710 -0.00125773918484996
3710 370 -0.000434800713024421
3710 3709 -0.00118451450992946
3710 3710 0.0193902104354442
3711 370 -0.0166666666666667
3711 3711 0.0172962783320088
3711 3712 -1.09032449721754e-06
3712 370 0.0
3712 371 -0.0166666666666667
3712 3711 -2.183426701376e-08
3712 3712 0.0178073744715902
3712 3713 0.0
3713 370 0.0
3713 371 -0.0166666666666667
3713 372 -0.00043207830065801
3713 3712 0.0
3713 3713 0.0193010409686151
3713 3714 -0.00110662888842584
3714 372 -0.000438133230018339
3714 3713 -0.00117438144655306
3714 3714 0.0193848162973077
3715 372 -0.0166666666666667
3715 3715 0.0173066829055726
3715 3716 -1.17850668861998e-06
3716 3715 -2.35026937765211e-08
3716 3716 0.0178149746842345
3717 363 -0.000431364756994681
3717 364 0.0
3717 366 -0.0166666666666667
3717 3700 0.0
3717 3717 0.0192763238297127
3717 3718 -0.00108492248973003
3718 363 -0.000438866309522161
3718 3717 -0.00115086473852541
3718 3718 0.0193620926345084
3719 311 -0.000138898900526048
3719 349 -0.0166666666666667
3719 350 0.0
3719 3719 0.0172963531511251
3719 3720 -4.2870842639073e-07
3720 311 -0.000139617294389291
3720 350 0.0
3720 351 -0.0166666666666667
3720 3673 0.0
3720 3719 -9.51377049798813e-09
3720 3720 0.0177495866410289
3721 373 -0.0166666666666667
3721 374 -0.000435057325047152
3721 3721 0.0193883890526193
3721 3722 -0.00118121301451966
3722 374 -0.000435081731065997
3722 3721 -0.00125611318806703
3722 3722 0.0194633542459594
3723 374 -0.0166666666666667
3723 376 -0.000138289510792667
3723 3723 0.0172964746611408
3723 3724 -1.20960968951783e-06
3724 376 -0.000140226684122673
3724 3723 -2.39032606349813e-08
3724 3724 0.0178147026032578
3725 377 -0.000140229335054008
3725 3725 0.0178147057784965
3725 3726 -2.39698004783898e-08
3726 374 -0.0166666666666667
3726 377 -0.000138286859861331
3726 3725 -1.21288106723124e-06
3726 3726 0.0172964747236448
3727 377 -0.0166666666666667
3727 378 -0.000435069394631857
3727 3727 0.0194637108092801
3727 3728 -0.00125648510526804
3728 378 -0.000435069389550489
3728 3727 -0.00118155587635169
3728 3728 0.0193887815570613
3729 378 -0.0166666666666667
3729 3729 0.0172964151549298
3729 3730 -4.27106302281655e-07
3730 379 -0.0166666666666667
3730 3729 -9.47849091229854e-09
3730 3730 0.0177495992959328
3731 379 -0.0166666666666667
3731 3731 0.0177492248112503
3731 3732 -5.17779383578906e-07
3732 3731 -4.96796927091243e-08
3732 3732 0.0178140139540073
3733 376 -0.0166666666666667
3733 380 -0.000435168272526174
3733 3733 0.0194615601858393
3733 3734 -0.00125399377351725
3734 380 -0.000434972697148704
3734 3733 -0.00117973336574162
3734 3734 0.0193864040661351
3735 381 -0.000138329236201211
3735 382 -0.0166666666666667
3735 3735 0.0173052378719511
3735 3736 -1.16498797383903e-06
3735 3782 0.0
3736 381 -0.000140186958714128
3736 3735 -2.33928603649599e-08
3736 3736 0.0178146582832622
3737 383 -0.0166666666666667
3737 384 -0.000138287075366651
3737 3737 0.0172964394671825
3737 3738 -1.21259630273194e-06
3738 384 -0.000140229119548688
3738 3737 -2.39623924701885e-08
3738 3738 0.0178147054943495
3739 384 -0.0166666666666667
3739 386 -0.000139258454546936
3739 3739 0.017814467528367
3739 3740 -9.33745297868121e-07
3740 386 -0.000139257740368403
3740 3739 -9.34892070952238e-07
3740 3740 0.0178144318010058
3741 387 -0.000435055528504503
3741 3741 0.0193882964019923
3741 3742 -0.00118115048591625
3742 384 -0.0166666666666667
3742 387 -0.000435083568186561
3742 3741 -0.00125598089226016
3742 3742 0.0194632553716142
3743 386 -0.0166666666666667
3743 389 -0.000435072662950887
3743 3743 0.019463604817295
3743 3744 -0.00125636789473562
3744 389 -0.000435066193259916
3744 3743 -0.00118146131478345
3744 3744 0.0193886685693908
3745 381 -0.000138899088561681
3745 388 0.0
3745 389 -0.0166666666666667
3745 3745 0.0172964302280185
3745 3746 -4.28634134774421e-07
3746 381 -0.000139617106353658
3746 388 0.0
3746 390 -0.0166666666666667
3746 3745 -9.50505359387174e-09
3746 3746 0.0177500186390968
3746 3747 0.0
3747 388 -0.000138940653027277
3747 390 -0.0166666666666667
3747 3746 0.0
3747 3747 0.0177496423494717
3747 3748 -4.73830440639681e-07
3748 388 -0.000139575541888062
3748 3747 -4.57508561380249e-08
3748 3748 0.0178139751639271
3749 342 -0.00043841729813281
3749 388 -0.0166666666666667
3749 3749 0.0194038726929434
3749 3750 -0.00118519815382812
3750 342 -0.000431802193377015
3750 3749 -0.00113147962792324
3750 3750 0.0193210650330795
3751 387 -0.0166666666666667
3751 392 -0.000138421931556495
3751 3751 0.0172964917336674
3751 3752 -1.04623713006894e-06
3752 392 -0.000140094263358844
3752 3751 -2.05843400324393e-08
3752 3752 0.0178145496587001
3753 342 -0.000436709554426626
3753 392 -0.0166666666666667
3753 3753 0.0194123409556367
3753 3754 -0.00119672311455852
3754 342 -0.000433469595476341
3754 391 0.0
3754 392 0.0
3754 393 -0.0166666666666667
3754 3753 -0.00114355309658945
3754 3754 0.0193457917807221
3754 3755 0.0
3755 391 -0.000438825800967893
3755 393 -0.0166666666666667
3755 3754 0.0
3755 3755 0.0194758550382455
3755 3756 -0.00125592048119515
3756 391 -0.000431396059158853
3756 3755 -0.00120231103100156
3756 3756 0.0193896956616588
3757 381 -0.000138290618264299
3757 391 -0.0166666666666667
3757 3757 0.0172964848493273
3757 3758 -1.20824848732213e-06
3758 381 -0.00014022557665104
3758 3757 -2.38760385660033e-08
3758 3758 0.0178147013421607
3759 395 -0.000435069595976945
3759 396 -0.0166666666666667
3759 3759 0.0194636372101129
3759 3760 -0.0012564108178201
3760 395 -0.000435069192642485
3760 3759 -0.00118148444615659
3760 3760 0.0193887089888112
3761 395 -0.0166666666666667
3761 3761 0.0172964393423152
3761 3762 -1.21143525352024e-06
3762 395 0.0
3762 397 -0.0166666666666667
3762 3761 -2.39438465741853e-08
3762 3762 0.0178146131933784
3762 3779 0.0
3763 394 -0.0166666666666667
3763 3763 0.0172964393844348
3763 3764 -1.21306464651349e-06
3764 3763 -2.39719133473768e-08
3764 3764 0.0178147059621873
3765 381 -0.0166666666666667
3765 398 -0.000435207587129756
3765 3765 0.0194638181335962
3765 3766 -0.0012561202691227
3766 398 -0.000434934243879777
3766 3765 -0.00118203438802174
3766 3766 0.0193884809592554
3767 396 -0.000138286871097143
3767 398 -0.0166666666666667
3767 3767 0.0172964759607953
3767 3768 -1.21286786314684e-06
3768 396 -0.000140229323818196
3768 3767 -2.3969588615846e-08
3768 3768 0.0178147057662446
3769 400 -0.000140229316757458
3769 3769 0.0178147057572842
3769 3770 -2.39694113970499e-08
3770 398 -0.0166666666666667
3770 400 -0.000138286878157882
3770 3769 -1.21285914937943e-06
3770 3770 0.0172964759605991
3771 400 -0.0166666666666667
3771 401 -0.000435069861087793
3771 3771 0.0194636380955878
3771 3772 -0.001256410797132
3772 401 -0.000435068933373937
3772 3771 -0.00118148603206807
3772 3772 0.019388709076166
3773 401 -0.0166666666666667
3773 3773 0.0172964393436226
3773 3774 -1.21143524546325e-06
3774 401 0.0
3774 402 -0.0166666666666667
3774 3773 -2.39438464742388e-08
3774 3774 0.0178146131932993
3774 3775 0.0
3775 401 0.0
3775 402 -0.0166666666666667
3775 403 -0.000435032852613
3775 3774 0.0
3775 3775 0.0193885567753522
3775 3776 -0.00118148100326301
3776 403 -0.000435106754723657
3776 3775 -0.00125634406111459
3776 3776 0.0194636166968781
3777 403 -0.0166666666666667
3777 3777 0.0172964393844214
3777 3778 -1.21306464658342e-06
3778 3777 -2.3971913348209e-08
3778 3778 0.0178147059621874
3779 394 -0.000435032852641439
3779 395 0.0
3779 397 -0.0166666666666667
3779 3762 0.0
3779 3779 0.0193885567753732
3779 3780 -0.00118148100316008
3780 394 -0.000435106754694578
3780 3779 -0.00125634406106167
3780 3780 0.0194636166967959
3781 342 -0.000139063297967854
3781 380 -0.0166666666666667
3781 3781 0.0172967522287055
3781 3782 -2.03407230368285e-07
3782 342 -0.000139452896947485
3782 380 0.0
3782 381 0.0
3782 382 -0.0166666666666667
3782 3735 0.0
3782 3781 -1.75965589473195e-08
3782 3782 0.01730542664589
3783 404 -0.0166666666666667
3783 405 -0.000435065741772807
3783 3783 0.0193884313397973
3783 3784 -0.0011812204887631
3784 405 -0.000435073124632555
3784 3783 -0.00125613577038263
3784 3784 0.0194633662905455
3785 405 -0.0166666666666667
3785 407 -0.000138286284757403
3785 3785 0.0172964738095684
3785 3786 -1.21359018892024e-06
3786 407 -0.000140229910157936
3786 3785 -2.39841856617656e-08
3786 3786 0.0178147064035919
3787 408 -0.000140228218876105
3787 3787 0.017814704877992
3787 3788 -2.39417188530348e-08
3788 405 -0.0166666666666667
3788 408 -0.000138287976039234
3788 3787 -1.21150370057905e-06
3788 3788 0.0172964738011584
3789 408 -0.0166666666666667
3789 409 -0.000435109462002123
3789 3789 0.0194493807353944
3789 3790 -0.00124201443598458
3790 409 -0.000435030220343913
3790 3789 -0.00116766964883922
3790 3790 0.0193746725929096
3791 409 -0.0166666666666667
3791 3791 0.0173081303330447
3791 3792 -0.0001339244912021
3792 410 -0.0166666666666667
3792 3791 -2.4486868284754e-05
3792 3792 0.0178635877949816
3793 410 -0.0166666666666667
3793 3793 0.0173348654763293
3793 3794 -1.04752868644245e-06
3794 3793 -2.23062642015644e-08
3794 3794 0.0178145411980309
3795 407 -0.0166666666666667
3795 411 -0.000435048884195217
3795 3795 0.0193888351972144
3795 3796 -0.00118170026599908
3796 411 -0.000435090361870337
3796 3795 -0.00125659460890098
3796 3796 0.0194638400334166
3797 412 -0.000138933893426107
3797 413 -0.0166666666666667
3797 3797 0.0177494904443947
3797 3798 -4.83545322941621e-07
3797 3844 0.0
3798 412 -0.000139582301489232
3798 3797 -4.65951791816761e-08
3798 3798 0.017813953923499
3799 414 -0.0166666666666667
3799 415 -0.000435069239563229
3799 3799 0.0193884428434829
3799 3800 -0.00118121780684917
3800 415 -0.000435069548000013
3800 3799 -0.00125613915345877
3800 3800 0.0194633650118269
3801 415 -0.0166666666666667
3801 417 -0.000138286013333851
3801 3801 0.0172964741998578
3801 3802 -1.21392525480251e-06
3802 417 -0.000140230181581489
3802 3801 -2.39910227158872e-08
3802 3802 0.017814706660858
3803 418 -0.000140229372680005
3803 3803 0.0178147058209648
3803 3804 -2.3970714598251e-08
3804 415 -0.0166666666666667
3804 418 -0.000138286822235334
3804 3803 -1.21292720982871e-06
3804 3804 0.0172964741884389
3805 417 -0.0166666666666667
3805 420 -0.000435039227329621
3805 3805 0.0193887058048314
3805 3806 -0.00118161486512369
3806 420 -0.000435100236286997
3806 3805 -0.00125648894894022
3806 3806 0.0194637424061169
3807 412 -0.000138357128758214
3807 419 0.0
3807 420 -0.0166666666666667
3807 3807 0.0172964189492997
3807 3808 -1.12570816185459e-06
3808 412 -0.000140159066157125
3808 419 0.0
3808 421 -0.0166666666666667
3808 3807 -2.22147158226326e-08
3808 3808 0.0178142652186864
3808 3809 0.0
3809 419 -0.000434938825463918
3809 421 -0.0166666666666667
3809 3808 0.0
3809 3809 0.0193881873511393
3809 3810 -0.00118149860448211
3810 419 -0.00043520289868043
3810 3809 -0.00125619573968341
3810 3810 0.0194635877202401
3811 373 -0.000138286342284363
3811 419 -0.0166666666666667
3811 3811 0.0172964363686914
3811 3812 -1.21349920180919e-06
3812 373 -0.000140229852630977
3812 3811 -2.39806171193916e-08
3812 3812 0.0178147063153519
3813 418 -0.0166666666666667
3813 423 -0.000435068125149741
3813 3813 0.019388714686168
3813 3814 -0.0011814945012577
3814 423 -0.000435070687523708
3814 3813 -0.00125642003417049
3814 3814 0.0194636470456143
3815 373 -0.000138288877468917
3815 423 -0.0166666666666667
3815 3815 0.0172964378382645
3815 3816 -1.21015091751334e-06
3816 373 -0.000140227317446422
3816 412 0.0
3816 422 0.0
3816 423 0.0
3816 424 -0.0166666666666667
3816 3815 -2.39229803350932e-08
3816 3816 0.0178145160915292
3816 3817 0.0
3817 422 -0.000434994690186027
3817 424 -0.0166666666666667
3817 3816 0.0
3817 3817 0.0193885964889095
3817 3818 -0.00118169041399521
3818 422 -0.000435145776107332
3818 3817 -0.00125648696022081
3818 3818 0.0194637954413787
3819 412 -0.000138352953476255
3819 422 -0.0166666666666667
3819 3819 0.017296408883971
3819 3820 -1.13122244037598e-06
3820 412 -0.000140163241439084
3820 3819 -2.23091853795639e-08
3820 3820 0.0178145985581429
3821 426 -0.000135274539864154
3821 427 -0.0166666666666667
3821 3821 0.0173314539890347
3821 3822 -5.01444632546631e-06
3822 426 -0.000143241655051185
3822 3821 -1.09866000013418e-07
3822 3822 0.0178188430632979
3823 426 -0.0166666666666667
3823 3823 0.0191833678841653
3823 3824 -0.00115255809689226
3824 426 0.0
3824 428 -0.0166666666666667
3824 3823 -0.00116695963416675
3824 3824 0.0193073016724906
3824 3841 0.0
3825 425 -0.0166666666666667
3825 3825 0.0172969314941213
3825 3826 -1.2105137651592e-06
3826 3825 -2.39425929167627e-08
3826 3826 0.0178147034232611
3827 412 -0.0166666666666667
3827 429 -0.000437941742226114
3827 3827 0.0190410730770499
3827 3828 -0.000823623092840541
3828 429 -0.000432315834894541
3828 3827 -0.000779817530267084
3828 3828 0.0189719892294969
3829 427 0.000218486799119613
3829 429 -0.0166666666666667
3829 3829 0.0174669464297295
3829 3830 -0.000477372644101759
3830 427 -0.000891418053508551
3830 3829 -0.000100890525843169
3830 3830 0.0187551220717943
3831 431 -0.000139701781018269
3831 3831 0.0178140970993464
3831 3832 -1.29863402849588e-08
3832 429 -0.0166666666666667
3832 431 -0.00013881441389707
3832 3831 -5.75952369555323e-07
3832 3832 0.017369195907954
3833 431 -0.0166666666666667
3833 432 -0.000453057648293402
3833 3833 0.019522862447401
3833 3834 -0.0012549131872709
3834 432 -0.00041747923878692
3834 3833 -0.0012624868038214
3834 3834 0.019393278835604
3835 432 -0.0166666666666667
3835 3835 0.0172966662193905
3835 3836 -9.72291627722415e-06
3836 432 0.0
3836 433 -0.0166666666666667
3836 3835 -1.21413434668134e-07
3836 3836 0.0179398884478062
3836 3837 0.0
3837 432 0.0
3837 433 -0.0166666666666667
3837 434 -0.000142683907492472
3837 3836 0.0
3837 3837 0.0179358412564393
3837 3838 -3.14581126948724e-07
3838 434 -0.000135832287422867
3838 3837 -5.64926743849099e-06
3838 3838 0.0178138319445937
3839 434 -0.0166666666666667
3839 3839 0.0193703856826768
3839 3840 -0.00118120734934456
3840 3839 -0.00124844632332797
3840 3840 0.0194604805418001
3841 425 -0.000404324471515192
3841 426 0.0
3841 428 -0.0166666666666667
3841 3824 0.0
3841 3841 0.0192675040489117
3841 3842 -0.00117513383015891
3842 425 -0.000466398858585694
3842 3841 -0.00119991064076259
3842 3842 0.0194438480812312
3843 373 -0.00013889830927688
3843 411 -0.0166666666666667
3843 412 0.0
3843 3843 0.0172963963463645
3843 3844 -4.2951193281156e-07
3844 373 -0.00013961788563846
3844 412 0.0
3844 413 -0.0166666666666667
3844 3797 0.0
3844 3843 -9.52678627103132e-09
3844 3844 0.0177498907292439
3845 435 -0.0166666666666667
3845 436 -0.000435231404167815
3845 3845 0.0188852022804432
3845 3846 -0.0006769166987797
3846 436 -0.000434916453249015
3846 3845 -0.0006256689050665
3846 3846 0.0188324708841117
3847 436 -0.0166666666666667
3847 438 -0.000138672556881986
3847 3847 0.0174062615201246
3847 3848 -7.66079367871497e-07
3848 438 -0.000139843638033353
3848 3847 -1.90374494518299e-08
3848 3848 0.0178142633180293
3849 439 -0.000807403253803167
3849 3849 0.0187657876777795
3849 3850 -0.000183873918065665
3850 436 -0.0166666666666667
3850 439 1.13208142554363e-05
3850 3849 -0.000512856379296788
3850 3850 0.017733070781705
3851 439 -0.0166666666666667
3851 440 -0.000135236533028903
3851 3851 0.0173279989208002
3851 3852 -5.05928492620163e-06
3852 440 -0.000143279661886436
3852 3851 -1.09940092441767e-07
3852 3852 0.0178189142493529
3853 440 -0.0166666666666667
3853 3853 0.0191837856777059
3853 3854 -0.00115261550320968
3854 441 -0.0166666666666667
3854 3853 -0.00116715931604292
3854 3854 0.0193075009050144
3855 441 -0.0166666666666667
3855 3855 0.0192715504007066
3855 3856 -0.00117898318183162
3856 3855 -0.00120392391412786
3856 3856 0.0194477863374667
3857 438 -0.0166666666666667
3857 442 -0.000439073955171491
3857 3857 0.0194769265765691
3857 3858 -0.00125615984296153
3858 442 -0.000431153380462345
3858 3857 -0.00120385500091471
3858 3858 0.0193900185880403
3859 443 -0.000434870224107476
3859 444 -0.0166666666666667
3859 3859 0.0193914099137533
3859 3860 -0.00118504666533011
3859 3906 0.0
3860 443 -0.000435273023345195
3860 3859 -0.00125968948646175
3860 3860 0.0194671248940259
3861 445 -0.0166666666666667
3861 446 -0.00013828667509045
3861 3861 0.0172964393766727
3861 3862 -1.21309020944368e-06
3862 446 -0.000140229519824889
3862 3861 -2.39724329252019e-08
3862 3862 0.0178147059866567
3863 446 -0.0166666666666667
3863 448 -0.00043506864054855
3863 3863 0.0193887307626826
3863 3864 -0.00118150837470913
3864 448 -0.000435070160511034
3864 3863 -0.00125643515612083
3864 3864 0.0194636615934981
3865 449 -0.000139258116844784
3865 3865 0.0178144318702274
3865 3866 -9.33783910990536e-07
3866 446 -0.0166666666666667
3866 449 -0.000139258078070556
3866 3865 -9.33811502946044e-07
3866 3866 0.0178144299643036
3867 448 -0.0166666666666667
3867 451 -0.00013827864273075
3867 3867 0.0172964362338874
3867 3868 -1.2229993220649e-06
3868 451 -0.00014023755218459
3868 3867 -2.41738769572596e-08
3868 3868 0.017814715109202
3869 443 -0.000434990359763353
3869 451 -0.0166666666666667
3869 3869 0.0193909887083489
3869 3870 -0.00118493749346423
3870 404 0.0
3870 443 -0.000435150194228865
3870 450 0.0
3870 451 0.0
3870 452 -0.0166666666666667
3870 3869 -0.00125955268129309
3870 3870 0.01946602890274
3870 3871 0.0
3871 450 -0.000434859092529007
3871 452 -0.0166666666666667
3871 3870 0.0
3871 3871 0.019387855439124
3871 3872 -0.00118149272049226
3872 450 -0.000435284424993224
3872 3871 -0.00125604934766984
3872 3872 0.0194635444483519
3873 404 -0.000138286581602824
3873 450 -0.0166666666666667
3873 3873 0.0172964365263251
3873 3874 -1.21320404495395e-06
3874 404 -0.000140229613312515
3874 3873 -2.39746177115109e-08
3874 3874 0.0178147060925782
3875 449 -0.0166666666666667
3875 454 -0.00043506904373509
3875 3875 0.0193887875206789
3875 3876 -0.00118156330259116
3876 454 -0.000435069748238998
3876 3875 -0.00125649208526834
3876 3876 0.0194637181802562
3877 404 -0.000138900368233471
3877 453 0.0
3877 454 -0.0166666666666667
3877 3877 0.0172964141750712
3877 3878 -4.26976078434958e-07
3878 404 -0.000139615826681868
3878 453 0.0
3878 455 -0.0166666666666667
3878 3877 -9.47598200812493e-09
3878 3878 0.0177495760715989
3878 3879 0.0
3879 453 -0.00013890858171438
3879 455 -0.0166666666666667
3879 3878 0.0
3879 3879 0.017749201641045
3879 3880 -5.20385719864523e-07
3880 453 -0.00013960761320096
3880 3879 -4.99125605911364e-08
3880 3880 0.0178140161378314
3881 443 -0.000434886571394757
3881 453 -0.0166666666666667
3881 3881 0.0193914777822561
3881 3882 -0.00118504760094161
3882 443 -0.000435256310073468
3882 3881 -0.00125971925119922
3882 3882 0.0194671336437931
3883 457 -0.000437741641876694
3883 458 -0.0166666666666667
3883 3883 0.0194580790627339
3883 3884 -0.00124178531317213
3884 457 -0.000432457188030006
3884 3883 -0.00118263492130233
3884 3884 0.0193754724084427
3885 457 -0.0166666666666667
3885 3885 0.0173081480357068
3885 3886 -0.000133922698986129
3886 457 0.0
3886 459 -0.0166666666666667
3886 3885 -2.44895773575377e-05
3886 3886 0.0178635891344392
3886 3903 0.0
3887 456 -0.0166666666666667
3887 3887 0.0193849898136359
3887 3888 -0.00118151827367968
3888 3887 -0.00125483132562912
3888 3888 0.019463232892834
3889 443 -0.0166666666666667
3889 460 -0.000134626693225826
3889 3889 0.0172960559757212
3889 3890 -5.67497435835261e-06
3890 460 -0.000143889501689513
3890 3889 -1.17227408613949e-07
3890 3890 0.0178189581300063
3891 458 -0.000138908712464487
3891 460 -0.0166666666666667
3891 3891 0.017703678230284
3891 3892 -4.9937618246701e-07
3892 458 -0.000139607482450852
3892 3891 -3.06502532037201e-08
3892 3892 0.0178139944449867
3893 462 -0.000597713400143133
3893 3893 0.0184421025597138
3893 3894 -2.40244287551271e-05
3894 460 -0.0166666666666667
3894 462 -7.52178542458052e-05
3894 3893 -8.94167397427546e-05
3894 3894 0.0177137723141376
3895 462 -0.0166666666666667
3895 463 -0.000242422452004102
3895 3895 0.018607923364992
3895 3896 -0.000925379786421283
3896 463 -0.000626419835077194
3896 3895 -0.00075038029653888
3896 3896 0.0191586075172781
3897 463 -0.0166666666666667
3897 3897 0.0177029162002805
3897 3898 -0.000245143973844672
3898 463 0.0
3898 464 -0.0166666666666667
3898 465 0.0
3898 3897 -0.000193968089936665
3898 3898 0.0179475102895724
3899 464 -0.0166666666666667
3899 465 -0.000138219319557458
3899 3899 0.0173460971398786
3899 3900 -1.32223121759111e-06
3900 465 -0.000140296875357881
3900 3899 -2.90712391494978e-08
3900 3900 0.0178148169771744
3901 465 -0.0166666666666667
3901 3901 0.0193485878396607
3901 3902 -0.00118081271608877
3902 3901 -0.0012388003141907
3902 3902 0.0194575794108615
3903 456 -0.000138412525548941
3903 457 0.0
3903 459 -0.0166666666666667
3903 3886 0.0
3903 3903 0.0173348680988911
3903 3904 -1.07451126624276e-06
3904 456 -0.000140103669366398
3904 3903 -2.28988835869187e-08
3904 3904 0.0178145682418867
3905 404 -0.000138293378267741
3905 442 -0.0166666666666667
3905 443 0.0
3905 3905 0.0172964527347
3905 3906 -1.20424066353106e-06
3906 404 -0.000140222816647599
3906 443 0.0
3906 444 -0.0166666666666667
3906 3859 0.0
3906 3905 -2.38206247996137e-08
3906 3906 0.0178141993541915
3907 466 -0.0166666666666667
3907 467 -0.000435871010405399
3907 3907 0.018896920015662
3907 3908 -0.000686401912695584
3908 467 -0.000434311639967858
3908 3907 -0.000638325692737097
3908 3908 0.018841567971059
3909 467 -0.0166666666666667
3909 469 -0.000138667044406463
3909 3909 0.0174035477820681
3909 3910 -7.72546665100816e-07
3910 469 -0.000139849150508876
3910 3909 -1.90790185253572e-08
3910 3910 0.0178142695812381
3911 470 -0.000811801782227152
3911 3911 0.0187643522383528
3911 3912 -0.00017848706876198
3912 467 -0.0166666666666667
3912 470 2.17125293756246e-05
3912 3911 -0.000509589395081857
3912 3912 0.0177166953062542
3913 470 -0.0166666666666667
3913 471 -0.000135533186849416
3913 3913 0.0173285847433682
3913 3914 -4.69583501144497e-06
3914 471 -0.000142983008065923
3914 3913 -1.01845505783431e-07
3914 3914 0.0178185786022877
3915 471 -0.0166666666666667
3915 3915 0.0191928643172403
3915 3916 -0.00115407859919588
3916 472 -0.0166666666666667
3916 3915 -0.00117144676995124
3916 3916 0.01931286365286
3917 472 -0.0166666666666667
3917 3917 0.0192743847992538
3917 3918 -0.00117896448649838
3918 3917 -0.00120526566976207
3918 3918 0.0194473150974792
3919 469 -0.0166666666666667
3919 473 -0.000439006972327074
3919 3919 0.0194769704025496
3919 3920 -0.00125643108232954
3920 473 -0.000431218847172979
3920 3919 -0.00120375472484333
3920 3920 0.0193902401795961
3921 474 -0.000434862443268884
3921 475 -0.0166666666666667
3921 3921 0.019387180128223
3921 3922 -0.00118080938637835
3921 3968 0.0
3922 474 -0.000435281002767785
3922 3921 -0.00125535484215399
3922 3922 0.0194628399719979
3923 476 -0.0166666666666667
3923 477 -0.000138286640917196
3923 3923 0.0172964393487799
3923 3924 -1.21313235466318e-06
3924 477 -0.000140229553998143
3924 3923 -2.39732892684089e-08
3924 3924 0.0178147060195563
3925 477 -0.0166666666666667
3925 479 -0.000435067434800664
3925 3925 0.0193887053622597
3925 3926 -0.00118148788386283
3926 479 -0.000435071393428818
3926 3925 -0.00125641208621197
3926 3926 0.019463640110947
3927 480 -0.000139258148276854
3927 3927 0.0178144327480211
3927 3928 -9.34881658679828e-07
3928 477 -0.0166666666666667
3928 480 -0.000139258046638485
3928 3927 -9.3495398348783e-07
3928 3928 0.0178144277579761
3929 479 -0.0166666666666667
3929 482 -0.000138286481481243
3929 3929 0.0172964387342727
3929 3930 -1.21332835924946e-06
3930 482 -0.000140229713434096
3930 3929 -2.39772668643884e-08
3930 3930 0.0178147058633732
3931 474 -0.000435100436115738
3931 482 -0.0166666666666667
3931 3931 0.0194629028419433
3931 3932 -0.00125566691830198
3932 474 -0.000435039032534642
3932 481 0.0
3932 482 0.0
3932 483 -0.0166666666666667
3932 3931 -0.00118081642190051
3932 3932 0.0193878887757383
3932 3933 0.0
3933 481 -0.00043503283482655
3933 483 -0.0166666666666667
3933 3932 0.0
3933 3933 0.0193890263762268
3933 3934 -0.00118197542174123
3934 481 -0.00043510677237509
3934 3933 -0.00125684228342591
3934 3934 0.0194640901826458
3935 435 -0.000138283467016899
3935 481 -0.0166666666666667
3935 3935 0.0172963725697189
3935 3936 -1.21695435575037e-06
3936 435 -0.000140232727898441
3936 3935 -2.40507205201776e-08
3936 3936 0.01781466023288
3937 480 -0.0166666666666667
3937 485 -0.000435025887435455
3937 3937 0.0193889744409617
3937 3938 -0.00118194373351254
3938 485 -0.000435113876200826
3938 3937 -0.00125680005533067
3938 3938 0.0194640651337369
3939 435 -0.000138898928565554
3939 485 -0.0166666666666667
3939 3939 0.0172963616356282
3939 3940 -4.28676150398849e-07
3940 435 -0.000139617266349785
3940 474 0.0
3940 484 0.0
3940 485 0.0
3940 486 -0.0166666666666667
3940 3939 -9.5132436771589e-09
3940 3940 0.0177495851017135
3940 3941 0.0
3941 484 -0.000138910062415604
3941 486 -0.0166666666666667
3941 3940 0.0
3941 3941 0.017749247641711
3941 3942 -5.18268041627564e-07
3942 484 -0.000139606132499735
3942 3941 -4.97520252347835e-08
3942 3942 0.0178140140868086
3943 474 -0.000435036509827944
3943 484 -0.0166666666666667
3943 3943 0.019387905510733
3943 3944 -0.00118081969348847
3944 474 -0.000435103015721982
3944 3943 -0.00125567283667539
3944 3944 0.0194629358214772
3945 488 -0.000133620199164306
3945 489 -0.0166666666666667
3945 3945 0.0180438943525561
3945 3946 -0.000560900084076318
3946 488 -0.000725519994603599
3946 3945 -0.000288534096345938
3946 3946 0.0187957069582666
3947 488 -0.0166666666666667
3947 3947 0.0177374439328938
3947 3948 -0.000267021959071756
3948 487 0.0
3948 488 0.0
3948 490 -0.0166666666666667
3948 3947 -0.000214133585214811
3948 3948 0.017966566448949
3949 487 -0.0166666666666667
3949 3949 0.0193465909995582
3949 3950 -0.00118077342878954
3950 3949 -0.00123791262449077
3950 3950 0.0194573127654812
3951 474 -0.0166666666666667
3951 491 -0.000138688118698558
3951 3951 0.0172965161025565
3951 3952 -7.16280208726827e-07
3952 491 -0.000139828076216782
3952 3951 -1.39408267359584e-08
3952 3952 0.0178142098987628
3953 489 -0.000458129631085333
3953 491 -0.0166666666666667
3953 1974 0.0
3953 3953 0.0187014625769069
3953 3954 -0.000416030208289801
3954 489 -0.000413598754070089
3954 3953 -0.000470417770715891
3954 3954 0.0185800388700858
3955 493 -0.000137976768222351
3955 3955 0.0178142597734856
3955 3956 -3.92634159972046e-06
3956 491 -0.0166666666666667
3956 493 -0.000140539426692988
3956 3955 -7.84926914613627e-07
3956 3956 0.0178691591832313
3957 493 -0.0166666666666667
3957 494 -0.000425027766008081
3957 3957 0.0193348473865252
3957 3958 -0.00116751653970172
3958 494 -0.000445328716144572
3958 3957 -0.0012249295456633
3958 3958 0.0194447289756929
3959 494 -0.0166666666666667
3959 3959 0.0173080151777424
3959 3960 -0.000133996459548231
3960 494 0.0
3960 495 -0.0166666666666667
3960 3959 -2.44742517923652e-05
3960 3960 0.0178636488295263
3960 3961 0.0
3961 494 0.0
3961 495 -0.0166666666666667
3961 496 -0.000138411741515959
3961 3960 0.0
3961 3961 0.0173348621827652
3961 3962 -1.07549290769848e-06
3962 496 -0.00014010445339938
3962 3961 -2.29201530844114e-08
3962 3962 0.0178145692111379
3963 496 -0.0166666666666667
3963 3963 0.0193848567620656
3963 3964 -0.00118151635482894
3964 3963 -0.00125477293295166
3964 3964 0.0194632155619246
3965 487 -0.000138213770482627
3965 490 -0.0166666666666667
3965 3965 0.0173484955870057
3965 3966 -1.33037270602235e-06
3966 487 -0.000140302424432713
3966 3965 -2.94133609017818e-08
3966 3966 0.0178148273619184
3967 435 -0.000138290715294724
3967 473 -0.0166666666666667
3967 474 0.0
3967 3967 0.0172964143215187
3967 3968 -1.20742002760443e-06
3968 435 -0.000140225479620615
3968 474 0.0
3968 475 -0.0166666666666667
3968 3921 0.0
3968 3967 -2.38876115774515e-08
3968 3968 0.0178141299090063
3969 497 -0.0166666666666667
3969 498 -0.000138286675893134
3969 3969 0.0172964393796226
3969 3970 -1.21308921736943e-06
3970 498 -0.000140229519022206
3970 3969 -2.39724130311146e-08
3970 3970 0.0178147059830381
3971 498 -0.0166666666666667
3971 500 -0.00013925807898304
3971 3971 0.0178144308211048
3971 3972 -9.34819410434324e-07
3972 500 -0.000139258115932299
3972 3971 -9.34793117616239e-07
3972 3972 0.0178144326353903
3973 501 -0.000435070119779518
3973 3973 0.0194636362328109
3973 3974 -0.0012564096306463
3974 498 -0.0166666666666667
3974 501 -0.000435068680382981
3974 3973 -0.00118148328063352
3974 3974 0.0193887060480273
3975 501 -0.0166666666666667
3975 502 -0.000138286694533201
3975 3975 0.0172964393573767
3975 3976 -1.21306620727653e-06
3976 502 -0.000140229500382138
3976 3975 -2.3971943851368e-08
3976 3976 0.0178147059636829
3977 502 -0.0166666666666667
3977 3977 0.0193887976067478
3977 3978 -0.00118157207781601
3978 503 -0.0166666666666667
3978 3977 -0.00125650162570867
3978 3978 0.019463727275768
3979 503 -0.0166666666666667
3979 3979 0.0193887977046092
3979 3980 -0.00118157208862119
3980 3979 -0.00125650166419828
3980 3980 0.0194637273843103
3981 500 -0.0166666666666667
3981 504 -0.000435030925452593
3981 3981 0.0193889522097448
3981 3982 -0.0011819000172201
3982 504 -0.000435108724823487
3982 3981 -0.00125676448751559
3982 3982 0.0194640239141653
3983 505 -0.000138910218392951
3983 506 -0.0166666666666667
3983 3983 0.0177493225039018
3983 3984 -5.18131012618996e-07
3983 4030 0.0
3984 505 -0.000139605976522388
3984 3983 -4.98169409981403e-08
3984 3984 0.0178140141298323
3985 507 -0.0166666666666667
3985 508 -0.000435068823290631
3985 3985 0.0193884453764503
3985 3986 -0.00118122217360853
3986 508 -0.000435069973655739
3986 3985 -0.00125614284670238
3986 3986 0.019463369114331
3987 508 -0.0166666666666667
3987 510 -0.000138286801913291
3987 3987 0.0172964736171049
3987 3988 -1.21295197632909e-06
3988 510 -0.000140229393002048
3988 3987 -2.3971192434155e-08
3988 3988 0.0178147058397751
3989 511 -0.000140230584882229
3989 3989 0.0178147070060391
3989 3990 -2.40011176184462e-08
3990 508 -0.0166666666666667
3990 511 -0.00013828561003311
3990 3989 -1.21442246005117e-06
3990 3990 0.0172964736295889
3991 510 -0.0166666666666667
3991 513 -0.000435067503898425
3991 3991 0.0193887179318738
3991 3992 -0.00118150056235401
3992 513 -0.000435071322773376
3992 3991 -0.0012564250565699
3992 3992 0.0194636526000948
3993 505 -0.000138289242827389
3993 512 0.0
3993 513 -0.0166666666666667
3993 3993 0.017296437034944
3993 3994 -1.20964050265571e-06
3994 505 -0.00014022695208795
3994 512 0.0
3994 514 -0.0166666666666667
3994 3993 -2.39153496141802e-08
3994 3994 0.0178144653667999
3994 3995 0.0
3995 512 -0.000434974854599588
3995 514 -0.0166666666666667
3995 3994 0.0
3995 3995 0.0193887196651586
3995 3996 -0.00118190508477707
3996 512 -0.000435166057532793
3996 3995 -0.00125666847383042
3996 3996 0.0194639922621226
3997 466 -0.000138299620238519
3997 512 -0.0166666666666667
3997 3997 0.0172963810772421
3997 3998 -1.19702907967459e-06
3998 466 -0.000140216574676821
3998 3997 -2.36457807710709e-08
3998 3998 0.0178146434627204
3999 511 -0.0166666666666667
3999 516 -0.000435025227850867
3999 3999 0.019388805058972
3999 4000 -0.00118177958688184
4000 516 -0.000435114550827603
4000 3999 -0.00125663030165246
4000 4000 0.0194638936988977
4001 466 -0.00013830611115367
4001 516 -0.0166666666666667
4001 4001 0.0172963976004947
4001 4002 -1.18846831550547e-06
4002 466 -0.000140210083761669
4002 515 0.0
4002 516 0.0
4002 517 -0.0166666666666667
4002 4001 -2.34988035352735e-08
4002 4002 0.0178141535165702
4002 4003 0.0
4003 515 -0.000434878052016917
4003 517 -0.0166666666666667
4003 4002 0.0
4003 4003 0.0193879446262342
4003 4004 -0.00118150619229765
4004 515 -0.000435265039122159
4004 4003 -0.00125609596684337
4004 4004 0.0194635647529618
4005 505 -0.00013828602641211
4005 515 -0.0166666666666667
4005 4005 0.0172964349185803
4005 4006 -1.21388810715753e-06
4006 505 -0.000140230168503229
4006 4005 -2.39884652187999e-08
4006 4006 0.0178147066071379
4007 519 -0.000435069292513271
4007 520 -0.0166666666666667
4007 4007 0.0193887114872826
4007 4008 -0.00118148620112529
4008 519 -0.000435069493855684
4008 4007 -0.001256413699629
4008 4008 0.019463639522194
4009 519 -0.0166666666666667
4009 4009 0.0172965077531164
4009 4010 -1.02046202213369e-06
4010 519 0.0
4010 521 -0.0166666666666667
4010 4009 -9.27568178720203e-08
4010 4010 0.0173051339160117
4010 4027 0.0
4011 518 -0.0166666666666667
4011 4011 0.0193887977533772
4011 4012 -0.00118157208930007
4012 4011 -0.00125650168557878
4012 4012 0.0194637273906579
4013 505 -0.0166666666666667
4013 522 -0.000435046434997871
4013 4013 0.0193883490811541
4013 4014 -0.00118121788505639
4014 522 -0.000435092866540485
4014 4013 -0.00125609889832019
4014 4014 0.0194633537877375
4015 520 -0.000138286853775869
4015 522 -0.0166666666666667
4015 4015 0.0172964740023512
4015 4016 -1.21288819251167e-06
4016 520 -0.00014022934113947
4016 4015 -2.39699122889328e-08
4016 4016 0.0178147057860664
4017 524 -0.000140229345868751
4017 4017 0.0178147057910134
4017 4018 -2.39700310192223e-08
4018 522 -0.0166666666666667
4018 524 -0.000138286849046589
4018 4017 -1.21289402770354e-06
4018 4018 0.0172964740024198
4019 524 -0.0166666666666667
4019 525 -0.000435069123307103
4019 4019 0.0193887107978405
4019 4020 -0.00118148620716794
4020 525 -0.000435069666874683
4020 4019 -0.00125641340675415
4020 4020 0.0194636394455751
4021 525 -0.0166666666666667
4021 4021 0.0172965077510263
4021 4022 -1.02046204410674e-06
4022 525 0.0
4022 526 -0.0166666666666667
4022 4021 -9.27568056586548e-08
4022 4022 0.0173051339160213
4022 4023 0.0
4023 525 0.0
4023 526 -0.0166666666666667
4023 527 -0.000138320998693125
4023 4022 0.0
4023 4023 0.0173041376249669
4023 4024 -1.1746439586461e-06
4024 527 -0.000140195196222214
4024 4023 -2.35410521181961e-08
4024 4024 0.0178146677207323
4025 527 -0.0166666666666667
4025 4025 0.0193887977504637
4025 4026 -0.00118157208925928
4026 4025 -0.00125650168430156
4026 4026 0.0194637273902763
4027 518 -0.000138320998711983
4027 519 0.0
4027 521 -0.0166666666666667
4027 4010 0.0
4027 4027 0.0173041376249789
4027 4028 -1.17464393529904e-06
4028 518 -0.000140195196203356
4028 4027 -2.35410516367698e-08
4028 4028 0.0178146677207122
4029 466 -0.000138904474579713
4029 504 -0.0166666666666667
4029 4029 0.0172963674074107
4029 4030 -4.22126237945786e-07
4030 466 -0.000139611720335627
4030 504 0.0
4030 505 0.0
4030 506 -0.0166666666666667
4030 3983 0.0
4030 4029 -9.3636161632337e-09
4030 4030 0.0177496556211017
4031 528 -0.0166666666666667
4031 529 -0.000138286650710325
4031 4031 0.0172964378151377
4031 4032 -1.21311945483194e-06
4032 529 -0.000140229544205014
4032 4031 -2.39729563898503e-08
4032 4032 0.0178147060102483
4033 529 -0.0166666666666667
4033 531 -0.000139258062358015
4033 4033 0.0178144284125189
4033 4034 -9.33804570413685e-07
4034 531 -0.000139258132557324
4034 4033 -9.33754616232121e-07
4034 4034 0.017814431863182
4035 532 -0.000435070776497348
4035 4035 0.0194636358566133
4035 4036 -0.00125640843271979
4036 529 -0.0166666666666667
4036 532 -0.000435068038137203
4036 4035 -0.00118148321892501
4036 4036 0.0193887033474267
4037 532 -0.0166666666666667
4037 533 -0.000138286694574832
4037 4037 0.0172964393604615
4037 4038 -1.21306615757996e-06
4038 533 -0.000140229500340508
4038 4037 -2.39719429806934e-08
4038 4038 0.0178147059636586
4039 533 -0.0166666666666667
4039 4039 0.0193887976105126
4039 4040 -0.00118157207791532
4040 534 -0.0166666666666667
4040 4039 -0.00125650162733729
4040 4040 0.019463727276734
4041 534 -0.0166666666666667
4041 4041 0.0193887977049908
4041 4042 -0.00118157208862703
4042 4041 -0.00125650166436534
4042 4042 0.0194637273843653
4043 531 -0.0166666666666667
4043 535 -0.000435069357599841
4043 4043 0.0193887117581042
4043 4044 -0.00118148620435052
4044 535 -0.000435069427302476
4044 4043 -0.00125641381798179
4044 4044 0.0194636395574343
4045 536 -0.000138321048324071
4045 537 -0.0166666666666667
4045 4045 0.0173041492300616
4045 4046 -1.17458831712666e-06
4045 4092 0.0
4046 536 -0.000140195146591268
4046 4045 -2.35404450870161e-08
4046 4046 0.0178146676653544
4047 538 -0.0166666666666667
4047 539 -0.000138286695610681
4047 4047 0.0172964393844353
4047 4048 -1.21306489215046e-06
4048 539 -0.000140229499304658
4048 4047 -2.39719183429222e-08
4048 4048 0.0178147059624318
4049 539 -0.0166666666666667
4049 541 -0.000139258097270407
4049 4049 0.0178144318417805
4049 4050 -9.33801309950124e-07
4050 541 -0.000139258097644932
4050 4049 -9.338010434358e-07
4050 4050 0.0178144318601901
4051 542 -0.000435069399499346
4051 4051 0.0194636364111164
4051 4052 -0.00125641070647421
4052 539 -0.0166666666666667
4052 542 -0.000435069384790271
4052 4051 -0.00118148311443158
4052 4052 0.0193887087798864
4053 541 -0.0166666666666667
4053 544 -0.000435069384822633
4053 4053 0.0193887815134855
4053 4054 -0.00118155584789411
4054 544 -0.000435069399466241
4054 4053 -0.0012564850788806
4054 4054 0.0194637107834847
4055 536 -0.000138900264540679
4055 544 -0.0166666666666667
4055 4055 0.0172964151566728
4055 4056 -4.27106383838012e-07
4056 536 -0.00013961593037466
4056 543 0.0
4056 544 0.0
4056 545 -0.0166666666666667
4056 4055 -9.47849280924834e-09
4056 4056 0.0177495992952378
4056 4057 0.0
4057 543 -0.000138910376016606
4057 545 -0.0166666666666667
4057 4056 0.0
4057 4057 0.0177492248104791
4057 4058 -5.17779519367425e-07
4058 543 -0.000139605818898733
4058 4057 -4.96797052902892e-08
4058 4058 0.0178140139541319
4059 497 -0.000435069382470465
4059 543 -0.0166666666666667
4059 4059 0.0193887088082677
4059 4060 -0.00118148315311942
4060 497 -0.000435069401871426
4060 4059 -0.00125641074170613
4060 4060 0.0194636364485416
4061 542 -0.0166666666666667
4061 547 -0.00013828669492217
4061 4061 0.0172964393844174
4061 4062 -1.21306574176735e-06
4062 547 -0.000140229499993169
4062 4061 -2.39719356219105e-08
4062 4062 0.0178147059632628
4063 497 -0.000435069376779887
4063 547 -0.0166666666666667
4063 4063 0.0193887087097286
4063 4064 -0.00118148314340502
4064 497 -0.000435069407690234
4064 546 0.0
4064 547 0.0
4064 548 -0.0166666666666667
4064 4063 -0.00125641070240488
4064 4064 0.0194636363510785
4064 4065 0.0
4065 546 -0.000435069374982947
4065 548 -0.0166666666666667
4065 4064 0.0
4065 4065 0.0193887087390941
4065 4066 -0.00118148311389442
4066 546 -0.000435069409527666
4066 4065 -0.00125641068860798
4066 4066 0.0194636364058402
4067 536 -0.000138286695603002
4067 546 -0.0166666666666667
4067 4067 0.0172964393843969
4067 4068 -1.21306490160525e-06
4068 536 -0.000140229499312337
4068 4067 -2.39719185336623e-08
4068 4068 0.0178147059624407
4069 550 -0.000435069384800129
4069 551 -0.0166666666666667
4069 4069 0.0193887118630618
4069 4070 -0.00118148619756053
4070 550 -0.000435069399489265
4070 4069 -0.00125641385909669
4070 4070 0.0194636395637321
4071 550 -0.0166666666666667
4071 4071 0.0172965077542917
4071 4072 -1.02046200973726e-06
4072 550 0.0
4072 552 -0.0166666666666667
4072 4071 -9.27568247378031e-08
4072 4072 0.017305133916006
4072 4089 0.0
4073 549 -0.0166666666666667
4073 4073 0.0193887977549708
4073 4074 -0.00118157208932237
4074 4073 -0.00125650168627738
4074 4074 0.0194637273908665
4075 536 -0.0166666666666667
4075 553 -0.000435069384518095
4075 4075 0.0193884418577966
4075 4076 -0.00118121619345347
4076 553 -0.000435069399777711
4076 4075 -0.0012561377693002
4076 4076 0.0194633634742979
4077 551 -0.00013828685820116
4077 553 -0.0166666666666667
4077 4077 0.0172964743993829
4077 4078 -1.21288294400935e-06
4078 551 -0.000140229336714179
4078 4077 -2.39698237237728e-08
4078 4078 0.0178147057813332
4079 555 -0.000140229336714196
4079 4079 0.0178147057813332
4079 4080 -2.3969823724179e-08
4080 553 -0.0166666666666667
4080 555 -0.000138286858201143
4080 4079 -1.21288294403079e-06
4080 4080 0.0172964743993829
4081 555 -0.0166666666666667
4081 556 -0.000435069384799507
4081 4081 0.0193887118630593
4081 4082 -0.00118148619756054
4082 556 -0.000435069399489902
4082 4081 -0.0012564138590956
4082 4082 0.0194636395637318
4083 556 -0.0166666666666667
4083 4083 0.0172965077542917
4083 4084 -1.02046200973732e-06
4084 556 0.0
4084 557 -0.0166666666666667
4084 4083 -9.27568247377396e-08
4084 4084 0.017305133916006
4084 4085 0.0
4085 556 0.0
4085 557 -0.0166666666666667
4085 558 -0.000138320998722293
4085 4084 0.0
4085 4085 0.0173041376249854
4085 4086 -1.17464392253489e-06
4086 558 -0.000140195196193047
4086 4085 -2.35410513736556e-08
4086 4086 0.0178146677207012
4087 558 -0.0166666666666667
4087 4087 0.0193887977549708
4087 4088 -0.00118157208932237
4088 4087 -0.00125650168627738
4088 4088 0.0194637273908665
4089 549 -0.000138320998722293
4089 550 0.0
4089 552 -0.0166666666666667
4089 4072 0.0
4089 4089 0.0173041376249854
4089 4090 -1.17464392253485e-06
4090 549 -0.000140195196193046
4090 4089 -2.35410513736547e-08
4090 4090 0.0178146677207012
4091 497 -0.000138284693812445
4091 535 -0.0166666666666667
4091 4091 0.0172965076665808
4091 4092 -1.0203313189724e-06
4092 497 -0.000140231501102894
4092 535 0.0
4092 536 0.0
4092 537 -0.0166666666666667
4092 4045 0.0
4092 4091 -9.26702349005647e-08
4092 4092 0.0173051453909592
4093 559 -0.0166666666666667
4093 560 -0.000435070335762564
4093 4093 0.0194633707007618
4093 4094 -0.00125614175474171
4094 560 -0.000435068469166236
4094 4093 -0.00118122593631264
4094 4094 0.0193884463223708
4095 560 -0.0166666666666667
4095 562 -0.000138286203203484
4095 4095 0.0172964739021653
4095 4096 -1.21369084068464e-06
4096 562 -0.000140229991711855
4096 4095 -2.39862388766482e-08
4096 4096 0.017814706471129
4097 563 -0.000140228217416731
4097 4097 0.0178147048759245
4097 4098 -2.39416874711979e-08
4098 560 -0.0166666666666667
4098 563 -0.000138287977498608
4098 4097 -1.21150194851006e-06
4098 4098 0.0172964738935758
4099 563 -0.0166666666666667
4099 564 -0.000435109502026177
4099 4099 0.0194493808683344
4099 4100 -0.00124201443215284
4100 564 -0.000435030181217088
4100 4099 -0.0011676698869337
4100 4100 0.0193746726050244
4101 564 -0.0166666666666667
4101 4101 0.0173081303333391
4101 4102 -0.000133924491176626
4102 565 -0.0166666666666667
4102 4101 -2.44868683301466e-05
4102 4102 0.0178635877950089
4103 565 -0.0166666666666667
4103 4103 0.0173348654763634
4103 4104 -1.04752868632072e-06
4104 4103 -2.2306264200574e-08
4104 4104 0.0178145411980308
4105 562 -0.0166666666666667
4105 566 -0.000435046027403482
4105 4105 0.0193886968271456
4105 4106 -0.00118157534474708
4106 566 -0.000435093283082004
4106 4105 -0.00125646132097252
4106 4106 0.0194637086880425
4107 567 -0.000138384828446226
4107 568 -0.0166666666666667
4107 4107 0.0173041769139336
4107 4108 -1.09554334382343e-06
4107 4154 0.0
4108 567 -0.000140131366469114
4108 4107 -2.19137423564159e-08
4108 4108 0.0178145628168013
4109 569 -0.0166666666666667
4109 570 -0.000138286677768216
4109 4109 0.0172964393739206
4109 4110 -1.213086902482e-06
4110 570 -0.000140229517147123
4110 4109 -2.39723655938119e-08
4110 4110 0.0178147059824802
4111 570 -0.0166666666666667
4111 572 -0.000139258080653319
4111 4111 0.0178144307839982
4111 4112 -9.34493112001855e-07
4112 572 -0.000139258114262021
4112 4111 -9.3446919615357e-07
4112 4112 0.0178144324348225
4113 573 -0.000435070056149006
4113 4113 0.0194636389371892
4113 4114 -0.0012564124644957
4114 570 -0.0166666666666667
4114 573 -0.000435068742611218
4114 4113 -0.00118148595888806
4114 4114 0.0193887089321176
4115 572 -0.0166666666666667
4115 575 -0.000435043064748192
4115 4115 0.0193888655360086
4115 4116 -0.00118175670116711
4116 575 -0.000435096312338415
4116 4115 -0.00125664138810586
4116 4116 0.0194638920667746
4117 567 -0.000138922740970408
4117 574 0.0
4117 575 -0.0166666666666667
4117 4117 0.0172963867645381
4117 4118 -4.00546896298885e-07
4118 567 -0.000139593453944931
4118 574 0.0
4118 576 -0.0166666666666667
4118 4117 -8.87106097806382e-09
4118 4118 0.0177498997117815
4118 4119 0.0
4119 574 -0.000138910391927833
4119 576 -0.0166666666666667
4119 4118 0.0
4119 4119 0.0177495724693359
4119 4120 -5.18188128586852e-07
4120 574 -0.000139605802987506
4120 4119 -5.00888730287148e-08
4120 4120 0.017814014238122
4121 528 -0.000435045651504759
4121 574 -0.0166666666666667
4121 4121 0.0193886214195925
4121 4122 -0.00118149384028358
4122 528 -0.000435093667508772
4122 4121 -0.00125637957080159
4122 4122 0.0194636350622923
4123 573 -0.0166666666666667
4123 578 -0.000138286185919272
4123 4123 0.0172964390135028
4123 4124 -1.21369351008339e-06
4124 578 -0.000140230008996067
4124 4123 -2.39846931501482e-08
4124 4124 0.0178147064557131
4125 528 -0.0004350807664092
4125 577 0.0
4125 578 -0.0166666666666667
4125 4125 0.0194635424129479
4125 4126 -0.00125637211589557
4126 528 -0.000435058268328494
4126 577 0.0
4126 579 -0.0166666666666667
4126 4125 -0.00118148467355335
4126 4126 0.0193885950416877
4126 4127 0.0
4127 577 -0.000435040266525951
4127 579 -0.0166666666666667
4127 4126 0.0
4127 4127 0.0193887904637096
4127 4128 -0.00118169761602073
4128 577 -0.000435099173616122
4128 4127 -0.00125657470314375
4128 4128 0.0194638244685289
4129 567 -0.00013835260307034
4129 577 -0.0166666666666667
4129 4129 0.017296408284771
4129 4130 -1.1316546482392e-06
4130 567 -0.000140163591844999
4130 4129 -2.23179439037086e-08
4130 4130 0.0178145987602886
4131 581 -0.000135274538150395
4131 582 -0.0166666666666667
4131 4131 0.0173314539689374
4131 4132 -5.01444838217852e-06
4132 581 -0.000143241656764945
4132 4131 -1.09866042397869e-07
4132 4132 0.0178188430651419
4133 581 -0.0166666666666667
4133 4133 0.0191833678439739
4133 4134 -0.00115255809083636
4134 581 0.0
4134 583 -0.0166666666666667
4134 4133 -0.0011669596150408
4134 4134 0.0193073016509603
4134 4151 0.0
4135 580 -0.0166666666666667
4135 4135 0.0172969314939965
4135 4136 -1.2105137658043e-06
4136 4135 -2.39425929242465e-08
4136 4136 0.0178147034232617
4137 567 -0.0166666666666667
4137 584 -0.000437928115910694
4137 4137 0.0190410313364222
4137 4138 -0.000823627788704149
4138 584 -0.000432328899183501
4138 4137 -0.000779749213569467
4138 4138 0.0189719905685246
4139 582 0.000218487273219374
4139 584 -0.0166666666666667
4139 4139 0.0174669457049127
4139 4140 -0.00047737305999976
4140 582 -0.000891418527608312
4140 4139 -0.000100890465185485
4140 4140 0.0187551223307546
4141 586 -0.000139701786050047
4141 4141 0.0178140971035928
4141 4142 -1.29864673787177e-08
4142 584 -0.0166666666666667
4142 586 -0.000138814408865292
4142 4141 -5.75958645398553e-07
4142 4142 0.0173691952385952
4143 586 -0.0166666666666667
4143 587 -0.000453057324015286
4143 4143 0.0195228613586729
4143 4144 -0.00125491321979357
4144 587 -0.000417479555947783
4144 4143 -0.0012624857016992
4144 4144 0.0193932787767274
4145 587 -0.0166666666666667
4145 4145 0.0172966662158899
4145 4146 -9.72291637013935e-06
4146 587 0.0
4146 588 -0.0166666666666667
4146 4145 -1.21413435136702e-07
4146 4146 0.0179398884476381
4146 4147 0.0
4147 587 0.0
4147 588 -0.0166666666666667
4147 589 -0.000142683907588298
4147 4146 0.0
4147 4147 0.0179358412563318
4147 4148 -3.14581136545179e-07
4148 589 -0.000135832287327042
4148 4147 -5.64926760193745e-06
4148 4148 0.0178138319445973
4149 589 -0.0166666666666667
4149 4149 0.0193703856781149
4149 4150 -0.00118120734926823
4150 4149 -0.00124844632131722
4150 4150 0.0194604805411919
4151 580 -0.000404324467010458
4151 581 0.0
4151 583 -0.0166666666666667
4151 4134 0.0
4151 4151 0.019267504033966
4151 4152 -0.00117513383061984
4152 580 -0.000466398863159433
4152 4151 -0.00119991063440439
4152 4152 0.0194438480799019
4153 528 -0.000138278294452393
4153 566 -0.0166666666666667
4153 567 0.0
4153 4153 0.0172964964024612
4153 4154 -1.02674406185604e-06
4154 528 -0.000140237900462946
4154 567 0.0
4154 568 -0.0166666666666667
4154 4107 0.0
4154 4153 -9.29759484961032e-08
4154 4154 0.0173051827906571
4155 590 -0.0166666666666667
4155 591 0.000227909597161434
4155 4155 0.0173505492137603
4155 4156 -0.000438374229680276
4156 591 -0.000900840851550373
4156 4155 -4.81358872158661e-05
4156 4156 0.0187218708148953
4157 591 -0.0166666666666667
4157 593 -0.000138562359099062
4157 4157 0.0174078896544059
4157 4158 -9.0868387110267e-07
4158 593 -0.000139953835816277
4158 4157 -2.27983603063991e-08
4158 4158 0.0178144027016027
4159 594 -0.000140073786324521
4159 4159 0.0178145584095829
4159 4160 -2.68130638269802e-08
4160 591 -0.0166666666666667
4160 594 -0.000138442408590818
4160 4159 -1.06316067196835e-06
4160 4160 0.0174078940527996
4161 594 -0.0166666666666667
4161 595 -0.000426922283598157
4161 4161 0.0193423072809524
4161 4162 -0.00116769061111693
4162 595 -0.000443394972905719
4162 4161 -0.00122826363249219
4162 4162 0.0194456918207232
4163 595 -0.0166666666666667
4163 4163 0.0172982030081412
4163 4164 -1.8951776183251e-06
4164 596 -0.0166666666666667
4164 4163 -2.80949762784711e-08
4164 4164 0.017827197713575
4165 596 -0.0166666666666667
4165 4165 0.0178265008932086
4165 4166 -9.25862840583119e-07
4166 4165 -1.34657557022568e-06
4166 4166 0.0178144080134049
4167 593 -0.0166666666666667
4167 597 -0.000432674210328746
4167 4167 0.0193789511951829
4167 4168 -0.00118147901946295
4168 597 -0.000437517849506739
4168 4167 -0.00125220905631006
4168 4168 0.0194624869766943
4169 598 -0.000138910408020894
4169 599 -0.0166666666666667
4169 4169 0.0177492253272223
4169 4170 -5.17733155226927e-07
4169 4216 0.0
4170 598 -0.000139605786894445
4170 4169 -4.96756672234455e-08
4170 4170 0.0178140139187709
4171 600 -0.0166666666666667
4171 601 -0.000435069384517252
4171 4171 0.0193884418550169
4171 4172 -0.00118121619070898
4172 601 -0.000435069399778573
4172 4171 -0.00125613776648296
4172 4172 0.0194633634714499
4173 601 -0.0166666666666667
4173 603 -0.000138286858754341
4173 4173 0.0172964743997286
4173 4174 -1.21288226150827e-06
4174 603 -0.000140229336160998
4174 4173 -2.3969809860033e-08
4174 4174 0.0178147057806272
4175 604 -0.000140229336292177
4175 4175 0.0178147057807867
4175 4176 -2.3969813152681e-08
4176 601 -0.0166666666666667
4176 604 -0.000138286858623162
4176 4175 -1.2128824233898e-06
4176 4176 0.0172964743997318
4177 603 -0.0166666666666667
4177 606 -0.000435069405363546
4177 4177 0.0194636361556436
4177 4178 -0.00125641041453346
4178 606 -0.000435069379055302
4178 4177 -0.00118148289887845
4178 4178 0.0193887085193422
4179 598 -0.000138288015962704
4179 606 -0.0166666666666667
4179 4179 0.0172964393935716
4179 4180 -1.2113281172625e-06
4180 559 0.0
4180 598 -0.000140228178952635
4180 605 0.0
4180 606 0.0
4180 607 -0.0166666666666667
4180 4179 -2.39416569730802e-08
4180 4180 0.0178146133160351
4180 4181 0.0
4181 605 -0.000435032940295221
4181 607 -0.0166666666666667
4181 4180 0.0
4181 4181 0.0193885567700677
4181 4182 -0.00118148063714991
4182 605 -0.00043510666506677
4182 4181 -0.00125634384183789
4182 4182 0.0194636163660859
4183 559 -0.000138286722125586
4183 605 -0.0166666666666667
4183 4183 0.0172964394328304
4183 4184 -1.21303220633213e-06
4184 559 -0.000140229472789753
4184 4183 -2.39712554208226e-08
4184 4184 0.0178147059371245
4185 604 -0.0166666666666667
4185 609 -0.00043506940046963
4185 4185 0.0194636362649158
4185 4186 -0.00125641054065753
4186 609 -0.00043506938384137
4186 4185 -0.00118148299187566
4186 4186 0.0193887086398788
4187 559 -0.000138287952903744
4187 609 -0.0166666666666667
4187 4187 0.0172964393787638
4187 4188 -1.21140585286092e-06
4188 559 -0.000140228242011595
4188 608 0.0
4188 609 0.0
4188 610 -0.0166666666666667
4188 4187 -2.39432406825611e-08
4188 4188 0.0178146133355807
4188 4189 0.0
4189 608 -0.00043503291855132
4189 610 -0.0166666666666667
4189 4188 0.0
4189 4189 0.0193885565492021
4189 4190 -0.00118148050457108
4190 608 -0.000435106687300586
4190 4189 -0.00125634366816502
4190 4190 0.0194636162212638
4191 598 -0.000138286786003025
4191 608 -0.0166666666666667
4191 4191 0.0172964394486109
4191 4192 -1.21295339218169e-06
4192 598 -0.000140229408912314
4192 4191 -2.3969653087421e-08
4192 4192 0.0178147058622278
4193 612 -0.000435249325540192
4193 613 -0.0166666666666667
4193 4193 0.0194669892783514
4193 4194 -0.00125913754589598
4194 612 -0.000434893412677741
4194 4193 -0.00118530036438423
4194 4194 0.0193915247086617
4195 612 -0.0166666666666667
4195 614 0.0
4195 4195 0.017296098474474
4195 4196 -1.06367312934038e-06
4196 614 -0.0166666666666667
4196 4195 -2.13609391462744e-08
4196 4196 0.0178056546914526
4197 611 -0.0166666666666667
4197 4197 0.017309819116548
4197 4198 -1.163426240683e-06
4198 4197 -2.33466429807013e-08
4198 4198 0.017814949594545
4199 598 -0.0166666666666667
4199 615 -0.000435072704181456
4199 4199 0.0194633224227003
4199 4200 -0.00125608528610373
4200 615 -0.00043506615296226
4200 4199 -0.00118118559577364
4200 4200 0.0193883926903337
4201 613 -0.00013829183160256
4201 615 -0.0166666666666667
4201 4201 0.0172964811071459
4201 4202 -1.206750297995e-06
4202 613 -0.000140224363312779
4202 4201 -2.38453432888062e-08
4202 4202 0.017814700876708
4203 617 -0.000140221824975804
4203 4203 0.0178146978502537
4203 4204 -2.37816337684043e-08
4204 615 -0.0166666666666667
4204 617 -0.000138294369939535
4204 4203 -1.20361768174549e-06
4204 4204 0.0172964810481539
4205 617 -0.0166666666666667
4205 618 -0.000435344396466284
4205 4205 0.0194659175728731
4205 4206 -0.00125773914873594
4206 618 -0.000434800441646336
4206 4205 -0.00118451613849551
4206 4206 0.0193902105130664
4207 618 -0.0166666666666667
4207 619 0.0
4207 4207 0.0172962783353253
4207 4208 -1.09032448304442e-06
4208 619 -0.0166666666666667
4208 4207 -2.18342668577251e-08
4208 4208 0.0178073744716684
4209 618 0.0
4209 619 -0.0166666666666667
4209 620 -0.000432078300695953
4209 4209 0.0193010409680305
4209 4210 -0.00110662888767642
4210 620 -0.000438133229979561
4210 4209 -0.00117438144585429
4210 4210 0.0193848162965737
4211 620 -0.0166666666666667
4211 4211 0.0173066829056794
4211 4212 -1.17850668811869e-06
4212 4211 -2.35026937711214e-08
4212 4212 0.0178149746842341
4213 611 -0.00043136475697796
4213 612 0.0
4213 614 -0.0166666666666667
4213 4213 0.0192763238295291
4213 4214 -0.00108492248963691
4214 611 -0.000438866309539296
4214 4213 -0.0011508647383945
4214 4214 0.0193620926343747
4215 559 -0.000138900254709784
4215 597 -0.0166666666666667
4215 4215 0.0172964062536986
4215 4216 -4.27116700035002e-07
4216 559 -0.000139615940205555
4216 597 0.0
4216 598 0.0
4216 599 -0.0166666666666667
4216 4169 0.0
4216 4215 -9.47853442084886e-09
4216 4216 0.0177495998236215
4217 621 -0.0166666666666667
4217 622 -0.000138286970731685
4217 4217 0.0172964394288558
4217 4218 -1.21272540531507e-06
4218 622 -0.000140229224183654
4218 4217 -2.39650162888406e-08
4218 4218 0.0178147056226493
4219 622 -0.0166666666666667
4219 624 -0.000435079665188464
4219 4219 0.0194632424803468
4219 4220 -0.00125598135252498
4220 624 -0.000435059345445456
4220 4219 -0.00118112723413059
4220 4220 0.0193882951902036
4221 625 -0.000139257838659735
4221 4221 0.0178144321328114
4221 4222 -9.34901878808751e-07
4222 622 -0.0166666666666667
4222 625 -0.000139258356255604
4222 4221 -9.34070655061731e-07
4222 4222 0.0178144580209843
4223 625 -0.0166666666666667
4223 626 -0.00043505964837954
4223 4223 0.0193838387473542
4223 4224 -0.00117665454921122
4224 626 -0.000435079356600351
4224 4223 -0.00125145538065709
4224 4224 0.019458692095214
4225 626 -0.0166666666666667
4225 4225 0.0172970581688366
4225 4226 -1.16362368362493e-17
4226 627 -0.0166666666666667
4226 4225 -8.00807256662095e-19
4226 4226 0.0173226956581742
4227 627 -0.0166666666666667
4227 4227 0.0173227088035449
4227 4228 -1.09342148655365e-06
4228 4227 -2.27142423077077e-08
4228 4228 0.0178145868761214
4229 624 -0.0166666666666667
4229 628 -0.000138421129190984
4229 4229 0.0172964916979878
4229 4230 -1.04722219521747e-06
4230 628 -0.000140095065724356
4230 4229 -2.06044330373597e-08
4230 4230 0.01781455042813
4231 629 -0.000438771655527875
4231 630 -0.0166666666666667
4231 4231 0.0194761567651129
4231 4232 -0.00125640745877263
4231 4278 0.0
4232 629 -0.000431448953116295
4232 4231 -0.00120248342376422
4232 4232 0.0193901277969211
4233 631 -0.0166666666666667
4233 632 -0.000435069598057074
4233 2251 0.0
4233 4233 0.0194633539559234
4233 4234 -0.00125612755432326
4234 632 -0.000435069190609703
4234 4233 -0.00118120745095251
4234 4234 0.0193884319840325
4235 632 -0.0166666666666667
4235 634 -0.000138286924064156
4235 4235 0.017296475709101
4235 4236 -1.21280234601188e-06
4236 634 -0.000140229270851183
4236 4235 -2.39682454273154e-08
4236 4236 0.0178147056852438
4237 635 -0.000140226692592859
4237 4237 0.0178147026131165
4237 4238 -2.3903529140394e-08
4238 632 -0.0166666666666667
4238 635 -0.000138289502322481
4238 4237 -1.2096206673739e-06
4238 4238 0.0172964756492609
4239 634 -0.0166666666666667
4239 637 -0.000435071687413104
4239 4239 0.0194635113006112
4239 4240 -0.00125627780048988
4240 637 -0.00043506714730364
4240 4239 -0.00118136680130286
4240 4240 0.0193885794815036
4241 629 -0.000138271241563716
4241 636 0.0
4241 637 -0.0166666666666667
4241 4241 0.0172965258603989
4241 4242 -1.03420292441458e-06
4242 629 -0.000140244953351623
4242 636 0.0
4242 638 -0.0166666666666667
4242 4241 -9.37092380803772e-08
4242 4242 0.0173052119919553
4243 636 -0.000138403971130206
4243 638 -0.0166666666666667
4243 4243 0.0173042004359115
4243 4244 -1.07186911344032e-06
4244 636 -0.000140112223785133
4244 4243 -2.14254882847721e-08
4244 4244 0.0178145703665167
4245 590 -0.000438433354062567
4245 636 -0.0166666666666667
4245 4245 0.0194039307261216
4245 4246 -0.00118520221101701
4246 590 -0.000431786524598486
4246 4245 -0.00113156930142864
4246 4246 0.019321074491836
4247 635 -0.0166666666666667
4247 640 -0.000435167788232856
4247 4247 0.0194615626446395
4247 4248 -0.00125399790053983
4248 640 -0.000434973170725628
4248 4247 -0.00117973440054903
4248 4248 0.0193864078136761
4249 590 -0.000139063303639516
4249 640 -0.0166666666666667
4249 4249 0.0172967516936828
4249 4250 -2.03401553309515e-07
4250 590 -0.000139452891275823
4250 639 0.0
4250 640 0.0
4250 641 -0.0166666666666667
4250 4249 -1.75963431721074e-08
4250 4250 0.0173054257802153
4251 639 -0.000138328115136845
4251 641 -0.0166666666666667
4251 4251 0.0173052370218566
4251 4252 -1.16637645863835e-06
4252 639 -0.000140188079778494
4252 4251 -2.34215439038826e-08
4252 4252 0.0178146593404367
4253 629 -0.000435165323893648
4253 639 -0.0166666666666667
4253 4253 0.0194640875795393
4253 4254 -0.00125653847166065
4254 629 -0.000434975574060253
4254 4253 -0.00118216803173681
4254 4254 0.0193888504672654
4255 643 -0.000310288607973751
4255 644 -0.0166666666666667
4255 4255 0.0188279009057511
4255 4256 -0.00100006119280006
4256 643 -0.000560774180157768
4256 4255 -0.00089833391235611
4256 4256 0.0192410594709606
4257 643 -0.0166666666666667
4257 4257 0.0173196351930705
4257 4258 -1.23805471953726e-06
4258 642 0.0
4258 643 0.0
4258 645 -0.0166666666666667
4258 2277 0.0
4258 4257 -2.36100996593662e-08
4258 4258 0.017817276497117
4259 642 -0.0166666666666667
4259 4259 0.0172958803103071
4259 4260 -1.21597905415155e-06
4260 4259 -2.40055324597325e-08
4260 4260 0.0178147088629611
4261 629 -0.0166666666666667
4261 646 -0.000138420116213701
4261 4261 0.0172964135806168
4261 4262 -1.04818854429195e-06
4262 646 -0.000140096078701638
4262 4261 -2.06282988179275e-08
4262 4262 0.0178144673884889
4263 644 -0.000446235732743376
4263 646 -0.0166666666666667
4263 4263 0.018443686719534
4263 4264 -0.000210075563706944
4264 644 -0.000410993106848832
4264 4263 -0.000182833591562523
4264 4264 0.0183321751743829
4265 648 -0.00013901156606886
4265 4265 0.0178148148672475
4265 4266 -1.99737151953955e-06
4266 646 -0.0166666666666667
4266 648 -0.00013950462884648
4266 4265 -1.28486278788734e-06
4266 4266 0.0178295061512011
4267 648 -0.0166666666666667
4267 649 -0.000422822744160628
4267 4267 0.0193497617607279
4267 4268 -0.001190725666551
4268 649 -0.000447571236367951
4268 4267 -0.00124503446125194
4268 4268 0.0194675617176627
4269 649 -0.0166666666666667
4269 650 0.0
4269 4269 0.0172951192319564
4269 4270 -1.07141837494051e-06
4270 650 -0.0166666666666667
4270 4269 -2.14703229569798e-08
4270 4270 0.0178058595667949
4271 649 0.0
4271 650 -0.0166666666666667
4271 651 -0.000431483288490702
4271 2289 0.0
4271 4271 0.0193058537144648
4271 4272 -0.0011136946885334
4272 651 -0.000438741647350535
4272 4271 -0.00118063268602805
4272 4272 0.019391960359087
4273 651 -0.0166666666666667
4273 4273 0.0173056689021277
4273 4274 -1.18363055424741e-06
4274 4273 -2.35558337294687e-08
4274 4274 0.0178149857852361
4275 642 -0.000435941020818056
4275 645 -0.0166666666666667
4275 4275 0.0194709518243956
4275 4276 -0.00126075351231549
4276 642 -0.000434216891005145
4276 4275 -0.00119094077767639
4276 4276 0.0193933220864734
4277 590 -0.000436729888333051
4277 628 -0.0166666666666667
4277 4277 0.0194122108470179
4277 4278 -0.00119657203671676
4278 590 -0.000433449749920078
4278 628 0.0
4278 629 0.0
4278 630 -0.0166666666666667
4278 4231 0.0
4278 4277 -0.00114336878037842
4278 4278 0.0193454506408376
4279 652 -0.0166666666666667
4279 653 -0.00013828666071727
4279 4279 0.0172964364510712
4279 4280 -1.21310638409451e-06
4280 653 -0.000140229534198069
4280 4279 -2.39726277026339e-08
4280 4280 0.0178147060027833
4281 653 -0.0166666666666667
4281 655 -0.000139258077330179
4281 4281 0.0178144298829873
4281 4282 -9.3380294651342e-07
4282 655 -0.000139258117585161
4282 4281 -9.33774300842212e-07
4282 4282 0.0178144318617155
4283 656 -0.000435070189961646
4283 4283 0.0194636360495128
4283 4284 -0.00125640935270473
4284 653 -0.0166666666666667
4284 656 -0.00043506861174746
4284 4283 -0.00118148312545114
4284 4284 0.0193887056176579
4285 656 -0.0166666666666667
4285 657 -0.000138286694923904
4285 4285 0.0172964393771041
4285 4286 -1.21306573574195e-06
4286 657 -0.000140229499991436
4286 4285 -2.39719351629878e-08
4286 4286 0.0178147059632728
4287 657 -0.0166666666666667
4287 4287 0.0193887976520839
4287 4288 -0.00118157208029669
4288 658 -0.0166666666666667
4288 4287 -0.00125650164472003
4288 4288 0.0194637273004342
4289 658 -0.0166666666666667
4289 4289 0.019388797720337
4289 4290 -0.00118157208884183
4290 4289 -0.00125650167109275
4290 4290 0.0194637273863746
4291 655 -0.0166666666666667
4291 659 -0.000435069377867834
4291 4291 0.019388711832576
4291 4292 -0.00118148619567292
4292 659 -0.000435069406577771
4292 4291 -0.00125641384488362
4292 4292 0.0194636395582745
4293 660 -0.000138321048357603
4293 661 -0.0166666666666667
4293 4293 0.017304149237179
4293 4294 -1.17458827916783e-06
4293 4340 0.0
4294 660 -0.000140195146557736
4294 4293 -2.35404446357736e-08
4294 4294 0.0178146676653143
4295 662 -0.0166666666666667
4295 663 -0.000138286695607514
4295 2313 0.0
4295 4295 0.0172964393844323
4295 4296 -1.21306489605736e-06
4296 663 -0.000140229499307826
4296 4295 -2.3971918422424e-08
4296 4296 0.0178147059624353
4297 663 -0.0166666666666667
4297 665 -0.000139258097267473
4297 4297 0.017814431841494
4297 4298 -9.33801311940697e-07
4298 665 -0.000139258097647867
4298 4297 -9.33801041250177e-07
4298 4298 0.017814431860192
4299 666 -0.000435069399615192
4299 4299 0.0194636364109944
4299 4300 -0.00125641070624534
4300 663 -0.0166666666666667
4300 666 -0.000435069384676978
4300 4299 -0.0011814831144145
4300 4300 0.0193887087793658
4301 665 -0.0166666666666667
4301 668 -0.000435069384753957
4301 4301 0.0193887815136928
4301 4302 -0.00118155584839528
4302 668 -0.000435069399536464
4302 4301 -0.00125648507926827
4302 4302 0.0194637107839486
4303 660 -0.000138900264538851
4303 667 0.0
4303 668 -0.0166666666666667
4303 4303 0.0172964151566069
4303 4304 -4.27106386139515e-07
4304 660 -0.000139615930376488
4304 667 0.0
4304 669 -0.0166666666666667
4304 4303 -9.47849285071832e-09
4304 4304 0.0177495992957072
4305 667 -0.000138910376055991
4305 669 -0.0166666666666667
4305 4305 0.0177492248109031
4305 4306 -5.17779462070214e-07
4306 667 -0.000139605818859349
4306 4305 -4.96797001355079e-08
4306 4306 0.017814013954024
4307 621 -0.000435069386750617
4307 667 -0.0166666666666667
4307 4307 0.0193887083934987
4307 4308 -0.00118148272213002
4308 621 -0.000435069397494826
4308 4307 -0.00125641030816468
4308 4308 0.0194636360081576
4309 666 -0.0166666666666667
4309 671 -0.000138286695450416
4309 4309 0.017296439384403
4309 4310 -1.2130650898131e-06
4310 671 -0.000140229499464923
4310 4309 -2.39719223657696e-08
4310 4310 0.0178147059625507
4311 621 -0.000435069386095123
4311 671 -0.0166666666666667
4311 4311 0.0193887083608434
4311 4312 -0.00118148271833985
4312 621 -0.000435069398165091
4312 670 0.0
4312 671 0.0
4312 672 -0.0166666666666667
4312 4311 -0.00125641029540731
4312 4312 0.0194636359700672
4313 670 -0.000435069385238039
4313 672 -0.0166666666666667
4313 4313 0.0193887087819448
4313 4314 -0.0011814831147354
4314 670 -0.000435069399041489
4314 4313 -0.0012564107075509
4314 4314 0.0194636364115349
4315 660 -0.000138286695606075
4315 670 -0.0166666666666667
4315 4315 0.0172964393843643
4315 4316 -1.21306489779412e-06
4316 660 -0.000140229499309265
4316 4315 -2.39719184546282e-08
4316 4316 0.0178147059624346
4317 674 -0.000435069384798287
4317 675 -0.0166666666666667
4317 4317 0.0193887118630544
4317 4318 -0.00118148619756066
4318 674 -0.000435069399491149
4318 4317 -0.00125641385909356
4318 4318 0.0194636395637314
4319 674 -0.0166666666666667
4319 676 0.0
4319 4319 0.0172965077542917
4319 4320 -1.02046200973759e-06
4320 676 -0.0166666666666667
4320 4319 -9.27568247375719e-08
4320 4320 0.017305133916006
4321 673 -0.0166666666666667
4321 4321 0.0193887977549708
4321 4322 -0.00118157208932237
4322 4321 -0.00125650168627736
4322 4322 0.0194637273908665
4323 660 -0.0166666666666667
4323 677 -0.000435069384645917
4323 4323 0.0193884418583468
4323 4324 -0.00118121619348252
4324 677 -0.000435069399647008
4324 4323 -0.00125613776955457
4324 4324 0.0194633634743847
4325 675 -0.000138286858201095
4325 677 -0.0166666666666667
4325 4325 0.0172964743993801
4325 4326 -1.21288294408737e-06
4326 675 -0.000140229336714244
4326 4325 -2.39698237251753e-08
4326 4326 0.0178147057813332
4327 679 -0.000140229336714366
4327 4327 0.0178147057813334
4327 4328 -2.39698237282633e-08
4328 677 -0.0166666666666667
4328 679 -0.000138286858200974
4328 4327 -1.21288294423792e-06
4328 4328 0.0172964743993801
4329 679 -0.0166666666666667
4329 680 -0.00043506938479387
4329 4329 0.0193887118630364
4329 4330 -0.00118148619756086
4330 680 -0.000435069399495666
4330 4329 -0.00125641385908597
4330 4330 0.0194636395637294
4331 680 -0.0166666666666667
4331 681 0.0
4331 4331 0.0172965077542917
4331 4332 -1.02046200973822e-06
4332 681 -0.0166666666666667
4332 4331 -9.27568247372702e-08
4332 4332 0.017305133916006
4333 680 0.0
4333 681 -0.0166666666666667
4333 682 -0.000138320998722292
4333 4333 0.0173041376249854
4333 4334 -1.17464392253588e-06
4334 682 -0.000140195196193047
4334 4333 -2.3541051373676e-08
4334 4334 0.0178146677207012
4335 682 -0.0166666666666667
4335 4335 0.0193887977549707
4335 4336 -0.00118157208932237
4336 4335 -0.00125650168627732
4336 4336 0.0194637273908665
4337 673 -0.000138320998722292
4337 674 0.0
4337 676 -0.0166666666666667
4337 4337 0.0173041376249854
4337 4338 -1.17464392253523e-06
4338 673 -0.000140195196193047
4338 4337 -2.3541051373771e-08
4338 4338 0.0178146677207012
4339 621 -0.000138284703375702
4339 659 -0.0166666666666667
4339 660 0.0
4339 4339 0.017296507666907
4339 4340 -1.02032125850803e-06
4340 621 -0.000140231491539637
4340 660 0.0
4340 661 -0.0166666666666667
4340 4293 0.0
4340 4339 -9.26692831361944e-08
4340 4340 0.017305145388003
4341 683 -0.0166666666666667
4341 684 -0.000138286682366656
4341 4341 0.0172964393819064
4341 4342 -1.21308123358901e-06
4342 684 -0.000140229512548683
4342 4341 -2.3972250601744e-08
4342 4342 0.0178147059780696
4343 684 -0.0166666666666667
4343 686 -0.000435068904052976
4343 4343 0.0193887254401868
4343 4344 -0.00118150189097285
4344 686 -0.000435069891069177
4344 4343 -0.00125642901506817
4344 4344 0.019463655193842
4345 687 -0.000139258110049798
4345 4345 0.0178144320166156
4345 4346 -9.33939903071356e-07
4346 684 -0.0166666666666667
4346 687 -0.000139258084865541
4346 4345 -9.33957824287751e-07
4346 4346 0.0178144307788949
4347 687 -0.0166666666666667
4347 688 -0.000435063340741964
4347 2363 0.0
4347 4347 0.0193848776728662
4347 4348 -0.00117767775440583
4348 688 -0.000435075580375908
4348 4347 -0.00125250844957368
4348 4348 0.0194597409817202
4349 688 -0.0166666666666667
4349 4349 0.0172969944929179
4349 4350 -7.55324938795984e-06
4350 689 -0.0166666666666667
4350 4349 -7.79115314308189e-08
4350 4350 0.017900499694212
4351 689 -0.0166666666666667
4351 4351 0.0178976999748934
4351 4352 -2.33628102656077e-07
4352 4351 -3.87667548982099e-06
4352 4352 0.0178135930268625
4353 686 -0.0166666666666667
4353 690 -0.000138280141008673
4353 4353 0.017296437059152
4353 4354 -1.22115128991173e-06
4354 690 -0.000140236053906666
4354 4353 -2.41363103321881e-08
4354 4354 0.0178147135015223
4355 691 -0.000434818199915889
4355 692 -0.0166666666666667
4355 4355 0.0193948601328561
4355 4356 -0.00118873902080405
4355 4402 0.0
4356 691 -0.000435326186273356
4356 4355 -0.00126336416897149
4356 4356 0.0194708368876742
4357 693 -0.0166666666666667
4357 694 -0.000435069368742757
4357 2375 0.0
4357 4357 0.0193884422504905
4357 4358 -0.00118121665337717
4358 694 -0.000435069415908642
4358 4357 -0.00125613821100519
4358 4358 0.0194633639337775
4359 694 -0.0166666666666667
4359 696 -0.000138286593339168
4359 4359 0.0172964743448792
4359 4360 -1.21320975071175e-06
4360 696 -0.000140229601576171
4360 4359 -2.39764688219899e-08
4360 4360 0.0178147060922408
4361 697 -0.00014022935376414
4361 4361 0.0178147058017989
4361 4362 -2.39702482699698e-08
4362 694 -0.0166666666666667
4362 697 -0.000138286841151199
4362 4361 -1.21290395199703e-06
4362 4362 0.0172964743394126
4363 696 -0.0166666666666667
4363 699 -0.000435059778147594
4363 4363 0.0193889053227464
4363 4364 -0.00118172116532546
4364 699 -0.000435079222540636
4364 4363 -0.0012566365453559
4364 4364 0.0194638725033117
4365 691 -0.000138107939683271
4365 699 -0.0166666666666667
4365 4365 0.017296493530139
4365 4366 -1.20622187414538e-06
4366 691 -0.000140408255232068
4366 698 0.0
4366 699 0.0
4366 700 -0.0166666666666667
4366 4365 -1.10214153364596e-07
4366 4366 0.0173052150067064
4367 698 -0.000138320118014007
4367 700 -0.0166666666666667
4367 4367 0.0173040340098533
4367 4368 -1.17568258886253e-06
4368 698 -0.000140196076901332
4368 4367 -2.35576501556051e-08
4368 4368 0.0178146687262424
4369 652 -0.000435052937198407
4369 698 -0.0166666666666667
4369 4369 0.0193886625537611
4369 4370 -0.00118150457751595
4370 652 -0.000435086217674514
4370 4369 -0.00125640355917503
4370 4370 0.0194636501950279
4371 697 -0.0166666666666667
4371 702 -0.000435068773858323
4371 4371 0.0193887257892247
4371 4372 -0.00118150274118995
4372 702 -0.000435070024197506
4372 4371 -0.00125642966435954
4372 4372 0.0194636560434849
4373 652 -0.000138285143315772
4373 702 -0.0166666666666667
4373 4373 0.0172965054748796
4373 4374 -1.01988138442592e-06
4374 652 -0.000140231051599568
4374 701 0.0
4374 702 0.0
4374 703 -0.0166666666666667
4374 4373 -9.26502679423438e-08
4374 4374 0.0173051393629531
4375 701 -0.000138312498857192
4375 703 -0.0166666666666667
4375 4375 0.0173041438368831
4375 4376 -1.18517343233528e-06
4376 701 -0.000140203696058148
4376 4375 -2.37586532625412e-08
4376 4376 0.0178146776002246
4377 691 -0.000434750487938305
4377 701 -0.0166666666666667
4377 4377 0.0193945788398414
4377 4378 -0.00118873511389969
4378 691 -0.000435395405799095
4378 4377 -0.00126324081468956
4378 4378 0.0194708001084178
4379 705 -0.000436779134539303
4379 706 -0.0166666666666667
4379 4379 0.0194803280841456
4379 4380 -0.0012672810045328
4380 705 -0.00043339691874949
4380 4379 -0.00120221471825938
4380 4380 0.0194000950994309
4381 705 -0.0166666666666667
4381 707 0.0
4381 4381 0.0172950455023188
4381 4382 -1.04309478839939e-06
4382 707 -0.0166666666666667
4382 4381 -2.09695226068838e-08
4382 4382 0.0178040398395855
4383 704 -0.0166666666666667
4383 4383 0.0173086281051332
4383 4384 -1.16921175366159e-06
4384 4383 -2.34055546297331e-08
4384 4384 0.0178149613334783
4385 691 -0.0166666666666667
4385 708 -0.000110310967390135
4385 4385 0.0172962108365399
4385 4386 -3.46550124345781e-05
4386 708 -0.000562620286998804
4386 4385 -4.73445694663901e-06
4386 4386 0.0183333673483142
4387 706 -0.000138849213053182
4387 708 -0.0166666666666667
4387 4387 0.0176170084219247
4387 4388 -5.6778869915156e-07
4388 706 -0.000139666981862158
4388 4387 -2.46149781579885e-08
4388 4388 0.017814058849745
4389 710 -0.000143948366628397
4389 4389 0.0178223326710731
4389 4390 -2.94765827683784e-07
4390 708 -0.0166666666666667
4390 710 -0.000134567828286942
4390 4389 -6.81196695085374e-06
4390 4390 0.0176166680355617
4391 710 -0.0166666666666667
4391 711 -0.000344952960577046
4391 4391 0.0189193905894529
4391 4392 -0.00100548420996318
4392 711 -0.000526365968885401
4392 4391 -0.000945436157372043
4392 4392 0.0192537236307865
4393 711 -0.0166666666666667
4393 4393 0.0173199119681976
4393 4394 -1.23676178966296e-06
4394 711 0.0
4394 712 -0.0166666666666667
4394 713 0.0
4394 2413 0.0
4394 4393 -2.35984477489148e-08
4394 4394 0.0178172740173286
4395 712 -0.0166666666666667
4395 713 -0.000435940683620559
4395 4395 0.0194709389729268
4395 4396 -0.00126074169224679
4396 713 -0.000434217221098729
4396 4395 -0.00119092785894799
4396 4396 0.0193933111644412
4397 713 -0.0166666666666667
4397 4397 0.0172958818582513
4397 4398 -1.21597096057542e-06
4398 4397 -2.40054389194566e-08
4398 4398 0.0178147088549035
4399 704 -0.000430721544928322
4399 705 0.0
4399 707 -0.0166666666666667
4399 2401 0.0
4399 4399 0.0192819871000558
4399 4400 -0.00109302488139546
4400 704 -0.000439524018875911
4400 4399 -0.00115810409202822
4400 4400 0.0193702791629623
4401 652 -0.000435084983208553
4401 690 -0.0166666666666667
4401 691 0.0
4401 4401 0.0194623470628701
4401 4402 -0.00125600599177529
4402 652 -0.000435054143960659
4402 691 0.0
4402 692 -0.0166666666666667
4402 4355 0.0
4402 4401 -0.00118137412448114
4402 4402 0.0193876331694533
4403 714 -0.0166666666666667
4403 715 -0.000138286695611132
4403 4403 0.0172964393844356
4403 4404 -1.21306489159398e-06
4404 715 -0.000140229499304207
4404 4403 -2.39719183317204e-08
4404 4404 0.0178147059624313
4405 715 -0.0166666666666667
4405 717 -0.000139258097270825
4405 4405 0.0178144318418226
4405 4406 -9.33801310870911e-07
4406 717 -0.000139258097644514
4406 4405 -9.33801044951077e-07
4406 4406 0.0178144318601911
4407 718 -0.000435069399482861
4407 4407 0.0194636364108026
4407 4408 -0.00125641070617519
4408 715 -0.0166666666666667
4408 718 -0.000435069384806393
4408 4407 -0.00118148311410959
4408 4408 0.0193887087796366
4409 718 -0.0166666666666667
4409 719 -0.000138286695018654
4409 4409 0.017296439384458
4409 4410 -1.21306562274285e-06
4410 719 -0.000140229499896685
4410 4409 -2.39719332022523e-08
4410 4410 0.0178147059631593
4411 719 -0.0166666666666667
4411 4411 0.0193887976615549
4411 4412 -0.00118157208096353
4412 720 -0.0166666666666667
4412 4411 -0.00125650164862213
4412 4412 0.0194637273070949
4413 720 -0.0166666666666667
4413 4413 0.0193887977248977
4413 4414 -0.00118157208890513
4414 4413 -0.00125650167309232
4414 4414 0.0194637273869663
4415 717 -0.0166666666666667
4415 721 -0.000435069384785221
4415 4415 0.019388711868217
4415 4416 -0.00118148620277656
4416 721 -0.000435069399504509
4416 4415 -0.00125641386440403
4416 4416 0.0194636395690589
4417 722 -0.000138321048328909
4417 723 -0.0166666666666667
4417 4417 0.0173041492303227
4417 4418 -1.1745883112665e-06
4417 4464 0.0
4418 722 -0.00014019514658643
4418 4417 -2.35404449782952e-08
4418 4418 0.0178146676653492
4419 724 -0.0166666666666667
4419 725 -0.000138286695611107
4419 2437 0.0
4419 4419 0.0172964393844356
4419 4420 -1.21306489162556e-06
4420 725 -0.000140229499304232
4420 4419 -2.39719183323613e-08
4420 4420 0.0178147059624314
4421 725 -0.0166666666666667
4421 727 -0.0001392580972708
4421 4421 0.017814431841819
4421 4422 -9.33801309750848e-07
4422 727 -0.000139258097644539
4422 4421 -9.33801043795399e-07
4422 4422 0.0178144318601899
4423 728 -0.00043506939948387
4423 4423 0.0194636364108878
4423 4424 -0.00125641070625854
4424 725 -0.0166666666666667
4424 728 -0.000435069384805406
4424 4423 -0.00118148311419266
4424 4424 0.0193887087797161
4425 727 -0.0166666666666667
4425 730 -0.000435069384829067
4425 4425 0.0193887815134138
4425 4426 -0.00118155584779333
4426 730 -0.000435069399459661
4426 4425 -0.00125648507878968
4426 4426 0.0194637107833882
4427 722 -0.000138900264540856
4427 729 0.0
4427 730 -0.0166666666666667
4427 4427 0.017296415156686
4427 4428 -4.271063836954e-07
4428 722 -0.000139615930374484
4428 729 0.0
4428 731 -0.0166666666666667
4428 4427 -9.47849280219224e-09
4428 4428 0.0177495992954452
4429 729 -0.000138910376031616
4429 731 -0.0166666666666667
4429 4429 0.0177492248106932
4429 4430 -5.17779497585702e-07
4430 729 -0.000139605818883723
4430 4429 -4.96797033573775e-08
4430 4430 0.0178140139541217
4431 683 -0.000435069383970378
4431 729 -0.0166666666666667
4431 4431 0.0193887087977068
4431 4432 -0.001181483135708
4432 683 -0.000435069400337715
4432 4431 -0.00125641072675559
4432 4432 0.0194636364323595
4433 728 -0.0166666666666667
4433 733 -0.000138286694967979
4433 4433 0.0172964393844483
4433 4434 -1.21306568527222e-06
4434 733 -0.00014022949994736
4434 4433 -2.39719344734912e-08
4434 4434 0.0178147059632215
4435 683 -0.000435069376957132
4435 733 -0.0166666666666667
4435 4435 0.0193887086999318
4435 4436 -0.00118148312670311
4436 683 -0.000435069407508996
4436 732 0.0
4436 733 0.0
4436 734 -0.0166666666666667
4436 4435 -0.00125641068746266
4436 4436 0.0194636363420863
4437 732 -0.000435069376411788
4437 734 -0.0166666666666667
4437 4437 0.0193887087448268
4437 4438 -0.00118148311374637
4438 732 -0.000435069408066628
4438 4437 -0.00125641069098422
4438 4438 0.0194636364063981
4439 722 -0.000138286695607003
4439 732 -0.0166666666666667
4439 4439 0.0172964393844271
4439 4440 -1.21306489668503e-06
4440 722 -0.000140229499308336
4440 4439 -2.39719184348657e-08
4440 4440 0.0178147059624364
4441 736 -0.000435069384800496
4441 737 -0.0166666666666667
4441 4441 0.0193887118630633
4441 4442 -0.00118148619756053
4442 736 -0.00043506939948889
4442 4441 -0.00125641385909733
4442 4442 0.0194636395637323
4443 736 -0.0166666666666667
4443 738 0.0
4443 4443 0.0172965077542918
4443 4444 -1.02046200973724e-06
4444 738 -0.0166666666666667
4444 4443 -9.27568247378536e-08
4444 4444 0.017305133916006
4445 735 -0.0166666666666667
4445 4445 0.0193887977549708
4445 4446 -0.00118157208932237
4446 4445 -0.00125650168627738
4446 4446 0.0194637273908665
4447 722 -0.0166666666666667
4447 739 -0.000435069384656582
4447 4447 0.0193884418583586
4447 4448 -0.00118121619344631
4448 739 -0.000435069399636102
4448 4447 -0.0012561377695376
4448 4448 0.0194633634743582
4449 737 -0.000138286858201179
4449 739 -0.0166666666666667
4449 4449 0.0172964743993849
4449 4450 -1.21288294398643e-06
4450 737 -0.00014022933671416
4450 4449 -2.39698237233977e-08
4450 4450 0.0178147057813331
4451 741 -0.00014022933671416
4451 4451 0.0178147057813331
4451 4452 -2.39698237233853e-08
4452 739 -0.0166666666666667
4452 741 -0.000138286858201179
4452 4451 -1.21288294398715e-06
4452 4452 0.0172964743993849
4453 741 -0.0166666666666667
4453 742 -0.000435069384800472
4453 4453 0.0193887118630632
4453 4454 -0.00118148619756053
4454 742 -0.000435069399488915
4454 4453 -0.00125641385909729
4454 4454 0.0194636395637323
4455 742 -0.0166666666666667
4455 743 0.0
4455 4455 0.0172965077542918
4455 4456 -1.02046200973724e-06
4456 743 -0.0166666666666667
4456 4455 -9.27568247378528e-08
4456 4456 0.017305133916006
4457 742 0.0
4457 743 -0.0166666666666667
4457 744 -0.000138320998722293
4457 4457 0.0173041376249854
4457 4458 -1.17464392253481e-06
4458 744 -0.000140195196193046
4458 4457 -2.35410513736267e-08
4458 4458 0.0178146677207012
4459 744 -0.0166666666666667
4459 4459 0.0193887977549708
4459 4460 -0.00118157208932237
4460 4459 -0.00125650168627738
4460 4460 0.0194637273908665
4461 735 -0.000138320998722293
4461 736 0.0
4461 738 -0.0166666666666667
4461 4461 0.0173041376249854
4461 4462 -1.17464392253481e-06
4462 735 -0.000140195196193046
4462 4461 -2.35410513735998e-08
4462 4462 0.0178146677207012
4463 683 -0.000138284694213328
4463 721 -0.0166666666666667
4463 4463 0.0172965076669643
4463 4464 -1.02033090018048e-06
4464 683 -0.000140231500702011
4464 721 0.0
4464 722 0.0
4464 723 -0.0166666666666667
4464 4417 0.0
4464 4463 -9.26701979568356e-08
4464 4464 0.0173051453908109
4465 745 -0.0166666666666667
4465 746 -0.000435069384693223
4465 4465 0.0193884418585091
4465 4466 -0.00118121619344674
4466 746 -0.000435069399598635
4466 4465 -0.00125613776960264
4466 4466 0.0194633634743759
4467 746 -0.0166666666666667
4467 748 -0.00013828685820118
4467 4467 0.0172964743993851
4467 4468 -1.21288294398543e-06
4468 748 -0.000140229336714159
4468 4467 -2.39698237233876e-08
4468 4468 0.0178147057813331
4469 749 -0.000140229336713375
4469 4469 0.0178147057813322
4469 4470 -2.3969823703686e-08
4470 746 -0.0166666666666667
4470 749 -0.000138286858201964
4470 4469 -1.21288294301814e-06
4470 4470 0.0172964743993851
4471 749 -0.0166666666666667
4471 750 -0.000435069384829208
4471 4471 0.0193887815134013
4471 4472 -0.00118155584778073
4472 750 -0.000435069399459518
4472 4471 -0.00125648507877693
4472 4472 0.0194637107833748
4473 750 -0.0166666666666667
4473 4473 0.0172964151566857
4473 4474 -4.2710629872946e-07
4474 751 -0.0166666666666667
4474 4473 -9.47849086778119e-09
4474 4474 0.0177495992959285
4475 751 -0.0166666666666667
4475 4475 0.0177492248112495
4475 4476 -5.17779383578773e-07
4476 4475 -4.96796927082656e-08
4476 4476 0.0178140139540073
4477 748 -0.0166666666666667
4477 752 -0.000435069384800495
4477 4477 0.0193887118675337
4477 4478 -0.00118148620203093
4478 752 -0.000435069399488891
4478 4477 -0.00125641386366847
4478 4478 0.0194636395683034
4479 753 -0.000138321048331202
4479 754 -0.0166666666666667
4479 4479 0.0173041492306689
4479 4480 -1.17458830859995e-06
4479 4526 0.0
4480 753 -0.000140195146584137
4480 4479 -2.35404449394737e-08
4480 4480 0.0178146676653465
4481 755 -0.0166666666666667
4481 756 -0.000138286695611133
4481 2499 0.0
4481 4481 0.0172964393844356
4481 4482 -1.21306489159276e-06
4482 756 -0.000140229499304206
4482 4481 -2.39719183316415e-08
4482 4482 0.0178147059624313
4483 756 -0.0166666666666667
4483 758 -0.000139258097270826
4483 4483 0.0178144318418215
4483 4484 -9.33801309744066e-07
4484 758 -0.000139258097644513
4484 4483 -9.33801043825827e-07
4484 4484 0.0178144318601899
4485 759 -0.000435069399482816
4485 4485 0.0194636364108022
4485 4486 -0.00125641070617487
4486 756 -0.0166666666666667
4486 759 -0.000435069384806437
4486 4485 -0.00118148311410921
4486 4486 0.0193887087796364
4487 758 -0.0166666666666667
4487 761 -0.000435069384829305
4487 4487 0.0193887815133983
4487 4488 -0.00118155584777734
4488 761 -0.000435069399459418
4488 4487 -0.00125648507877364
4488 4488 0.0194637107833714
4489 753 -0.000138900264540523
4489 761 -0.0166666666666667
4489 4489 0.0172964151566881
4489 4490 -4.27106384123253e-07
4490 753 -0.000139615930374817
4490 760 0.0
4490 761 0.0
4490 762 -0.0166666666666667
4490 4489 -9.47849280983375e-09
4490 4490 0.0177495992955507
4491 760 -0.000138910376039622
4491 762 -0.0166666666666667
4491 4491 0.0177492248107965
4491 4492 -5.17779485956589e-07
4492 760 -0.000139605818875717
4492 4491 -4.96797023203807e-08
4492 4492 0.0178140139541093
4493 714 -0.00043506938479924
4493 760 -0.0166666666666667
4493 4493 0.0193887087796628
4493 4494 -0.00118148311416521
4494 714 -0.000435069399490175
4494 4493 -0.00125641070621944
4494 4494 0.019463636410856
4495 759 -0.0166666666666667
4495 764 -0.000138286695014639
4495 4495 0.0172964393844581
4495 4496 -1.2130656276979e-06
4496 764 -0.0001402294999007
4496 4495 -2.39719333030584e-08
4496 4496 0.0178147059631643
4497 714 -0.00043506937753561
4497 763 0.0
4497 764 -0.0166666666666667
4497 4497 0.019388708685772
4497 4498 -0.00118148310576349
4498 714 -0.000435069406917482
4498 763 0.0
4498 765 -0.0166666666666667
4498 4497 -0.00125641066837268
4498 4498 0.0194636363266591
4498 4499 0.0
4499 763 -0.000435069377535611
4499 765 -0.0166666666666667
4499 4498 0.0
4499 4499 0.0193887087494364
4499 4500 -0.00118148311374545
4500 763 -0.000435069406917481
4500 4499 -0.00125641069296695
4500 4500 0.0194636364069358
4501 753 -0.000138286695607887
4501 763 -0.0166666666666667
4501 4501 0.0172964393844357
4501 4502 -1.21306489559901e-06
4502 753 -0.000140229499307452
4502 4501 -2.39719184131231e-08
4502 4502 0.0178147059624353
4503 767 -0.000435069384799287
4503 768 -0.0166666666666667
4503 2541 0.0
4503 4503 0.0193887088940557
4503 4504 -0.00118148322855788
4504 767 -0.000435069399490127
4504 4503 -0.00125641082318989
4504 4504 0.0194636365278264
4505 767 -0.0166666666666667
4505 769 0.0
4505 4505 0.017296439340966
4505 4506 -1.2114352611042e-06
4506 769 -0.0166666666666667
4506 4505 -2.39438466648548e-08
4506 4506 0.0178146131934184
4507 766 -0.0166666666666667
4507 4507 0.0172964393844281
4507 4508 -1.21306464654855e-06
4508 4507 -2.39719133478075e-08
4508 4508 0.0178147059621873
4509 753 -0.0166666666666667
4509 770 -0.000435069384687571
4509 4509 0.0193884418584855
4509 4510 -0.00118121619344612
4510 770 -0.000435069399604415
4510 4509 -0.00125613776959209
4510 4510 0.0194633634743728
4511 768 -0.000138286858201148
4511 770 -0.0166666666666667
4511 4511 0.0172964743993852
4511 4512 -1.21288294402584e-06
4512 768 -0.000140229336714192
4512 4511 -2.39698237241572e-08
4512 4512 0.0178147057813332
4513 772 -0.000140229336714192
4513 4513 0.0178147057813332
4513 4514 -2.39698237241842e-08
4514 770 -0.0166666666666667
4514 772 -0.000138286858201148
4514 4513 -1.21288294402581e-06
4514 4514 0.0172964743993852
4515 772 -0.0166666666666667
4515 773 -0.000435069384799287
4515 4515 0.0193887088940557
4515 4516 -0.00118148322855788
4516 773 -0.000435069399490127
4516 4515 -0.00125641082318989
4516 4516 0.0194636365278264
4517 773 -0.0166666666666667
4517 774 0.0
4517 4517 0.017296439340966
4517 4518 -1.2114352611042e-06
4518 774 -0.0166666666666667
4518 4517 -2.39438466648548e-08
4518 4518 0.0178146131934184
4519 773 0.0
4519 774 -0.0166666666666667
4519 775 -0.000435032852654396
4519 2537 0.0
4519 4519 0.0193885567754815
4519 4520 -0.00118148100321111
4520 775 -0.000435106754681329
4520 4519 -0.00125634406113794
4520 4520 0.0194636166968597
4521 775 -0.0166666666666667
4521 4521 0.0172964393844281
4521 4522 -1.21306464654855e-06
4522 4521 -2.39719133478075e-08
4522 4522 0.0178147059621873
4523 766 -0.000435032852654396
4523 767 0.0
4523 769 -0.0166666666666667
4523 2525 0.0
4523 4523 0.0193885567754815
4523 4524 -0.00118148100321111
4524 766 -0.000435106754681329
4524 4523 -0.00125634406113794
4524 4524 0.0194636166968597
4525 714 -0.000138284694694889
4525 752 -0.0166666666666667
4525 753 0.0
4525 4525 0.0172965076670156
4525 4526 -1.02033039390967e-06
4526 714 -0.00014023150022045
4526 753 0.0
4526 754 -0.0166666666666667
4526 4479 0.0
4526 4525 -9.26701503617336e-08
4526 4526 0.0173051453906523
4527 776 -0.0166666666666667
4527 777 -0.000435073590544243
4527 4527 0.0194633772872509
4527 4528 -0.00125613724075302
4528 777 -0.000435065286134219
4528 4527 -0.0011812411014764
4528 4528 0.0193884430666162
4529 777 -0.0166666666666667
4529 779 -0.000138286858621098
4529 4529 0.0172964744480312
4529 4530 -1.21288245172214e-06
4530 779 -0.000140229336294241
4530 4529 -2.39698159440932e-08
4530 4530 0.0178147057808155
4531 780 -0.000140229336059168
4531 4531 0.0178147057804571
4531 4532 -2.39698100456143e-08
4532 777 -0.0166666666666667
4532 780 -0.000138286858856171
4532 4531 -1.21288216154249e-06
4532 4532 0.017296474448021
4533 780 -0.0166666666666667
4533 781 -0.000435069401084583
4533 4533 0.0194636395974101
4533 4534 -0.00125641387127326
4534 781 -0.000435069383239967
4534 4533 -0.00118148625156356
4534 4534 0.0193887118958672
4535 781 -0.0166666666666667
4535 4535 0.0172965077543725
4535 4536 -1.02046181269096e-06
4536 782 -0.0166666666666667
4536 4535 -9.27568140336767e-08
4536 4536 0.0173051339147858
4537 782 -0.0166666666666667
4537 4537 0.0173041376239574
4537 4538 -1.17464369127346e-06
4538 4537 -2.35410465544014e-08
4538 4538 0.0178146677204709
4539 779 -0.0166666666666667
4539 783 -0.000435069392005489
4539 4539 0.0193887089236092
4539 4540 -0.00118148322857497
4540 783 -0.000435069392121542
4540 4539 -0.00125641083591904
4540 4540 0.0194636365312625
4541 784 -0.000435032852646153
4541 785 -0.0166666666666667
4541 4541 0.0193885567754198
4541 4542 -0.00118148100318356
4541 4588 0.0
4542 784 -0.000435106754689758
4542 4541 -0.00125634406109513
4542 4542 0.0194636166968271
4543 786 -0.0166666666666667
4543 787 -0.000138286695561419
4543 2561 0.0
4543 4543 0.0172964393844375
4543 4544 -1.21306495294347e-06
4544 787 -0.000140229499353921
4544 4543 -2.39719195794844e-08
4544 4544 0.0178147059624924
4545 787 -0.0166666666666667
4545 789 -0.000435069382989675
4545 4545 0.0193887087720763
4545 4546 -0.00118148311400434
4546 789 -0.000435069401340517
4546 4545 -0.00125641070286031
4546 4546 0.0194636364098218
4547 790 -0.000139258097691293
4547 4547 0.0178144318601931
4547 4548 -9.33800980670896e-07
4548 787 -0.0166666666666667
4548 790 -0.000139258097224047
4548 4547 -9.33801313166045e-07
4548 4548 0.0178144318372259
4549 789 -0.0166666666666667
4549 792 -0.000138286695014638
4549 4549 0.0172964393844581
4549 4550 -1.2130656276983e-06
4550 792 -0.000140229499900701
4550 4549 -2.39719333030396e-08
4550 4550 0.0178147059631643
4551 784 -0.000435069377535869
4551 792 -0.0166666666666667
4551 4551 0.0193887086857634
4551 4552 -0.00118148310575509
4552 745 0.0
4552 784 -0.000435069406917217
4552 791 0.0
4552 792 0.0
4552 793 -0.0166666666666667
4552 4551 -0.00125641066836418
4552 4552 0.019463636326649
4553 791 -0.000435069377535375
4553 793 -0.0166666666666667
4553 4553 0.0193887087494358
4553 4554 -0.0011814831137459
4554 791 -0.000435069406917722
4554 4553 -0.00125641069296696
4554 4554 0.019463636406936
4555 745 -0.000138286695608023
4555 791 -0.0166666666666667
4555 4555 0.0172964393844356
4555 4556 -1.21306489543126e-06
4556 745 -0.000140229499307316
4556 4555 -2.39719184097174e-08
4556 4556 0.017814705962435
4557 790 -0.0166666666666667
4557 795 -0.000435069384829208
4557 4557 0.0193887815133984
4557 4558 -0.00118155584777784
4558 795 -0.000435069399459517
4558 4557 -0.00125648507877396
4558 4558 0.0194637107833718
4559 745 -0.000138900264540569
4559 795 -0.0166666666666667
4559 4559 0.017296415156688
4559 4560 -4.27106384068704e-07
4560 745 -0.00013961593037477
4560 784 0.0
4560 794 0.0
4560 795 0.0
4560 796 -0.0166666666666667
4560 4559 -9.47849280858641e-09
4560 4560 0.0177495992955512
4561 794 -0.00013891037603962
4561 796 -0.0166666666666667
4561 4561 0.0177492248107972
4561 4562 -5.17779485960915e-07
4562 794 -0.000139605818875719
4562 4561 -4.96797023215808e-08
4562 4562 0.0178140139541093
4563 784 -0.000435069384798974
4563 794 -0.0166666666666667
4563 4563 0.0193887087796531
4563 4564 -0.00118148311415691
4564 784 -0.000435069399490447
4564 4563 -0.00125641070621038
4564 4564 0.019463636410847
4565 798 -0.000138286695016646
4565 799 -0.0166666666666667
4565 4565 0.0172964393844581
4565 4566 -1.2130656252204e-06
4566 798 -0.000140229499898693
4566 4565 -2.3971933252642e-08
4566 4566 0.0178147059631618
4567 797 0.0
4567 798 -0.0166666666666667
4567 4567 0.0193887976612414
4567 4568 -0.00118157208094098
4568 797 0.0
4568 800 -0.0166666666666667
4568 4567 -0.00125650164849317
4568 4568 0.0194637273068696
4569 797 -0.0166666666666667
4569 4569 0.0172964393844281
4569 4570 -1.21306464654855e-06
4570 4569 -2.39719133478075e-08
4570 4570 0.0178147059621873
4571 784 -0.0166666666666667
4571 801 -0.000138286695561417
4571 4571 0.0172964393844379
4571 4572 -1.21306495294561e-06
4572 801 -0.000140229499353922
4572 4571 -2.39719195795233e-08
4572 4572 0.0178147059624924
4573 799 -0.00043506938298956
4573 801 -0.0166666666666667
4573 4573 0.019388708772076
4573 4574 -0.00118148311400451
4574 799 -0.000435069401340634
4574 4573 -0.00125641070286029
4574 4574 0.0194636364098219
4575 803 -0.000139258097691296
4575 4575 0.0178144318601931
4575 4576 -9.33800980664578e-07
4576 801 -0.0166666666666667
4576 803 -0.000139258097224044
4576 4575 -9.33801313164241e-07
4576 4576 0.0178144318372256
4577 803 -0.0166666666666667
4577 804 -0.000435069384829284
4577 4577 0.0193887815133987
4577 4578 -0.00118155584777777
4578 804 -0.00043506939945944
4578 4577 -0.00125648507877403
4578 4578 0.0194637107833719
4579 804 -0.0166666666666667
4579 805 0.0
4579 4579 0.0172964151566877
4579 4580 -4.2710637728498e-07
4580 805 -0.0166666666666667
4580 4579 -9.47849244191979e-09
4580 4580 0.0177495993062723
4581 805 -0.0166666666666667
4581 806 -0.000138910376047636
4581 4581 0.0177492248215364
4581 4582 -5.17779487315693e-07
4582 806 -0.000139605818867703
4582 4581 -4.9679713659662e-08
4582 4582 0.0178140139541107
4583 806 -0.0166666666666667
4583 4583 0.0193887977549708
4583 4584 -0.00118157208932237
4584 4583 -0.00125650168627738
4584 4584 0.0194637273908665
4585 797 -0.000435069377571738
4585 800 -0.0166666666666667
4585 4585 0.0193887087496058
4585 4586 -0.00118148311376663
4586 797 -0.00043506940688054
4586 4585 -0.00125641069305238
4586 4586 0.0194636364069748
4587 745 -0.000138287928689845
4587 783 -0.0166666666666667
4587 4587 0.0172964393410237
4587 4588 -1.21143550903037e-06
4588 745 -0.000140228266225494
4588 783 0.0
4588 784 0.0
4588 785 -0.0166666666666667
4588 4541 0.0
4588 4587 -2.39438517116492e-08
4588 4588 0.0178146131936445
4589 807 -0.0166666666666667
4589 808 -0.000439266035089254
4589 4589 0.0193599440195765
4589 4590 -0.00113826801288032
4590 808 -0.000430980363868474
4590 4589 -0.00109077905787126
4590 4590 0.019276480743557
4591 808 -0.0166666666666667
4591 810 -0.000138409864981692
4591 4591 0.0173126649368985
4591 4592 -1.0683708421696e-06
4592 810 -0.000140106329933648
4592 4591 -2.17199091649137e-08
4592 4592 0.0178145668887514
4593 811 -0.000908412435916435
4593 4593 0.0187342109887733
4593 4594 -5.70571543797145e-05
4594 808 -0.0166666666666667
4594 811 0.000235481181527497
4594 4593 -0.000453812468425849
4594 4594 0.0173662394826823
4595 811 -0.0166666666666667
4595 812 -0.000127171097760207
4595 4595 0.0173902726296997
4595 4596 -1.55576690918531e-05
4596 812 -0.000545760156628732
4596 4595 -6.12977187720353e-06
4596 4596 0.0183343607413551
4597 812 -0.0166666666666667
4597 4597 0.0190435224881807
4597 4598 -0.00111910148431287
4598 813 -0.0166666666666667
4598 4597 -0.0010981231946391
4598 4598 0.0192002058717064
4599 813 -0.0166666666666667
4599 4599 0.0191810336689042
4599 4600 -0.00117547931931103
4600 4599 -0.0011611231402053
4600 4600 0.0194335300141196
4601 810 -0.0166666666666667
4601 814 -0.000437288210106853
4601 4601 0.0194710205585382
4601 4602 -0.00125626104852708
4602 814 -0.000432899574546833
4602 4601 -0.00119426070267824
4602 4602 0.0193894446024132
4603 815 -0.000138910479330904
4603 816 -0.0166666666666667
4603 4603 0.0177492266081855
4603 4604 -5.17630021288783e-07
4603 4650 0.0
4604 815 -0.000139605715584435
4604 4603 -4.96668683742545e-08
4604 4604 0.0178140137898259
4605 817 -0.0166666666666667
4605 818 -0.00043506938478295
4605 2623 0.0
4605 4605 0.0193884418600598
4605 4606 -0.0011812161946594
4606 818 -0.000435069399506886
4606 4605 -0.00125613777099215
4606 4606 0.0194633634756199
4607 818 -0.0166666666666667
4607 820 -0.000138286857243335
4607 4607 0.0172964743992523
4607 4608 -1.21288412595032e-06
4608 820 -0.000140229337672004
4608 4607 -2.39698477564661e-08
4608 4608 0.0178147057825145
4609 821 -0.000140229336498974
4609 4609 0.0178147057809879
4609 4610 -2.39698183155155e-08
4610 818 -0.0166666666666667
4610 821 -0.000138286858416365
4610 4609 -1.21288267825072e-06
4610 4610 0.0172964743992175
4611 820 -0.0166666666666667
4611 823 -0.000435069349793662
4611 4611 0.0193887089986199
4611 4612 -0.00118148348210879
4612 823 -0.00043506943528456
4612 4611 -0.00125641101907938
4612 4612 0.0194636367633517
4613 815 -0.000138288220902347
4613 823 -0.0166666666666667
4613 4613 0.0172964392993067
4613 4614 -1.21107470134999e-06
4614 776 0.0
4614 815 -0.000140227974012993
4614 822 0.0
4614 823 0.0
4614 824 -0.0166666666666667
4614 4613 -2.3936520687219e-08
4614 4614 0.017814612657826
4614 4615 0.0
4615 822 -0.000435032788457064
4615 824 -0.0166666666666667
4615 4614 0.0
4615 4615 0.0193885562197463
4615 4616 -0.00118148071382403
4616 822 -0.000435106820324988
4616 4615 -0.00125634365104462
4616 4616 0.0194636163662552
4617 776 -0.000138286808290662
4617 822 -0.0166666666666667
4617 4617 0.0172964394190999
4617 4618 -1.2129258592225e-06
4618 776 -0.000140229386624677
4618 4617 -2.39690924292987e-08
4618 4618 0.0178147058233792
4619 821 -0.0166666666666667
4619 826 -0.000435069393047989
4619 4619 0.0194636362774779
4619 4620 -0.00125641057978546
4620 826 -0.000435069391099459
4620 4619 -0.00118148298166642
4620 4620 0.019388708672301
4621 776 -0.000138288040456548
4621 826 -0.0166666666666667
4621 4621 0.0172964393709954
4621 4622 -1.21129767514461e-06
4622 776 -0.000140228154458792
4622 815 0.0
4622 825 0.0
4622 826 0.0
4622 827 -0.0166666666666667
4622 4621 -2.39410464318514e-08
4622 4622 0.0178146131114593
4622 4623 0.0
4623 825 -0.000435032875429173
4623 827 -0.0166666666666667
4623 4622 0.0
4623 4623 0.0193885573025995
4623 4624 -0.00118148144256121
4624 825 -0.000435106731393101
4624 4623 -0.00125634454891262
4624 4624 0.0194636171497058
4625 815 -0.000138286985894706
4625 825 -0.0166666666666667
4625 4625 0.0172964393188763
4625 4626 -1.21270661878923e-06
4626 815 -0.000140229209020633
4626 4625 -2.39646299428581e-08
4626 4626 0.0178147055903275
4627 829 -0.000434132277684114
4627 830 -0.0166666666666667
4627 4627 0.0193531525592224
4627 4628 -0.00114985437531924
4628 829 -0.000436028351477167
4628 4627 -0.00122237998047711
4628 4628 0.0194307215840422
4629 829 -0.0166666666666667
4629 831 0.0
4629 4629 0.0173112910791178
4629 4630 -0.000138259363976029
4630 831 -0.0166666666666667
4630 4629 -2.53865277378784e-05
4630 4630 0.0178692219185751
4631 828 -0.0166666666666667
4631 4631 0.0193634106903348
4631 4632 -0.00118108829657001
4632 4631 -0.00124536794862644
4632 4632 0.0194595580860946
4633 815 -0.0166666666666667
4633 832 -0.000435080309509953
4633 4633 0.0194631053235193
4633 4634 -0.00125584229082855
4634 832 -0.000435058715368487
4634 4633 -0.00118099346864504
4634 4634 0.0193881574850998
4635 830 -0.000138261308742774
4635 832 -0.0166666666666667
4635 4635 0.0172965129995646
4635 4636 -1.24443001707339e-06
4636 830 -0.000140254886172566
4636 4635 -2.46134321794112e-08
4636 4636 0.0178147384368367
4637 834 -0.000140249996876021
4637 4637 0.0178147321831826
4637 4638 -2.44906574575426e-08
4638 832 -0.0166666666666667
4638 834 -0.000138266198039318
4638 4637 -1.23839758836049e-06
4638 4638 0.0172965128605519
4639 834 -0.0166666666666667
4639 835 -0.000434308830163141
4639 4639 0.0193565238210358
4639 4640 -0.00115249078341533
4640 835 -0.000435847642627908
4640 4639 -0.00122539181989999
4640 4640 0.0194335198475174
4641 835 -0.0166666666666667
4641 836 0.0
4641 4641 0.0173108110594777
4641 4642 -0.000137635746082909
4642 836 -0.0166666666666667
4642 4641 -2.52486229488235e-05
4642 4642 0.0178684051236192
4643 836 -0.0166666666666667
4643 837 -0.000138290733115793
4643 4643 0.0173357792454708
4643 4644 -1.22767817853531e-06
4644 837 -0.000140225461799546
4644 4643 -2.6322788202907e-08
4644 4644 0.0178147220760386
4645 837 -0.0166666666666667
4645 4645 0.0193641798191387
4645 4646 -0.00118110177773261
4646 4645 -0.0012457077506377
4646 4646 0.0194596602746646
4647 828 -0.000138286150728847
4647 831 -0.0166666666666667
4647 4647 0.0173359378634118
4647 4648 -1.23349701123627e-06
4648 828 -0.000140230044186493
4648 4647 -2.64605452288721e-08
4648 4648 0.0178147283869216
4649 776 -0.000138900328862363
4649 814 -0.0166666666666667
4649 4649 0.0172964334628614
4649 4650 -4.27033784487718e-07
4650 776 -0.000139615866052976
4650 814 0.0
4650 815 0.0
4650 816 -0.0166666666666667
4650 4603 0.0
4650 4649 -9.47718670749512e-09
4650 4650 0.017749601045374
4651 838 -0.0166666666666667
4651 839 -0.000435235074593796
4651 4651 0.0188852131512914
4651 4652 -0.000676914763138863
4652 839 -0.000434912988301709
4652 4651 -0.00062568827083302
4652 4652 0.0188324695108037
4653 839 -0.0166666666666667
4653 841 -0.000138672805730212
4653 4653 0.0174062618540683
4653 4654 -7.65758082281971e-07
4654 841 -0.000139843389185127
4654 4653 -1.90292153995733e-08
4654 4654 0.0178142630176261
4655 842 -0.000807402803567671
4655 4655 0.0187657876969587
4655 4656 -0.000183874311667027
4656 839 -0.0166666666666667
4656 842 1.13198743547475e-05
4656 4655 -0.000512856505158025
4656 4656 0.017733072202274
4657 842 -0.0166666666666667
4657 843 -0.000135236534786965
4657 4657 0.0173279989518831
4657 4658 -5.05928282170762e-06
4658 843 -0.000143279660128374
4658 4657 -1.09940052362783e-07
4658 4658 0.0178189142473605
4659 843 -0.0166666666666667
4659 4659 0.0191837857135102
4659 4660 -0.00115261550950919
4660 844 -0.0166666666666667
4660 4659 -0.00116715933292912
4660 4660 0.0193075009282459
4661 844 -0.0166666666666667
4661 4661 0.0192715504188022
4661 4662 -0.00117898318238484
4662 4661 -0.00120392392247149
4662 4662 0.0194477863400541
4663 841 -0.0166666666666667
4663 845 -0.000439089518603329
4663 4663 0.0194766610313948
4663 4664 -0.00125584159877692
4664 845 -0.000431138195492317
4664 4663 -0.00120362756621229
4664 4664 0.0193897157775976
4665 846 -0.000434939106056469
4665 847 -0.0166666666666667
4665 4665 0.0193916866829809
4665 4666 -0.00118504095739005
4666 846 -0.00043520259886676
4666 4665 -0.00125980517520797
4666 4666 0.0194671524144911
4667 848 -0.0166666666666667
4667 849 -0.000138286681738493
4667 4667 0.0172964393783542
4667 4668 -1.21308200605163e-06
4668 849 -0.000140229513176846
4668 4667 -2.39722661868782e-08
4668 4668 0.017814705978151
4669 849 -0.0166666666666667
4669 851 -0.000435068884552595
4669 4669 0.0193887306635154
4669 4670 -0.00118150726982896
4670 851 -0.000435069911008886
4670 4669 -0.00125643445841789
4670 4670 0.0194636605867373
4671 852 -0.000139258110569624
4671 4671 0.0178144315994149
4671 4672 -9.3351368838679e-07
4672 849 -0.0166666666666667
4672 852 -0.000139258084345715
4672 4671 -9.33532497931827e-07
4672 4672 0.017814430309871
4673 851 -0.0166666666666667
4673 854 -0.000138279010834746
4673 4673 0.0172964363725471
4673 4674 -1.22254521803204e-06
4674 854 -0.000140237184080593
4674 4673 -2.41646447296168e-08
4674 4674 0.0178147146809073
4675 846 -0.000434989974486759
4675 854 -0.0166666666666667
4675 4675 0.0193910369733737
4675 4676 -0.0011849353174077
4676 807 0.0
4676 846 -0.000435150588304751
4676 853 0.0
4676 854 0.0
4676 855 -0.0166666666666667
4676 4675 -0.00125956508747995
4676 4676 0.0194660938610356
4676 4677 0.0
4677 853 -0.000434872688531902
4677 855 -0.0166666666666667
4677 4676 0.0
4677 4677 0.0193875426795062
4677 4678 -0.00118112078544046
4678 853 -0.000435270525342469
4678 4677 -0.00125569402526346
4678 4678 0.0194631751705482
4679 807 -0.000138392691801863
4679 853 -0.0166666666666667
4679 4679 0.0172964832727323
4679 4680 -1.0824233273161e-06
4680 807 -0.000140123503113476
4680 4679 -2.13161584778305e-08
4680 4680 0.0178145871202937
4681 852 -0.0166666666666667
4681 857 -0.000435080068461255
4681 4681 0.0194635173256722
4681 4682 -0.00125625483745071
4682 857 -0.000435058950988907
4682 4681 -0.00118139703309658
4682 4682 0.0193885626932298
4683 807 -0.000138936896109538
4683 857 -0.0166666666666667
4683 4683 0.0172964444175751
4683 4684 -3.83811097207312e-07
4684 807 -0.000139579298805801
4684 846 0.0
4684 856 0.0
4684 857 0.0
4684 858 -0.0166666666666667
4684 4683 -8.49107878205795e-09
4684 4684 0.0177500579653601
4685 856 -0.000138909064929744
4685 858 -0.0166666666666667
4685 4685 0.0177497183126398
4685 4686 -5.20324482149772e-07
4686 856 -0.000139607129985595
4686 4685 -5.04600381181251e-08
4686 4686 0.0178140160927331
4687 846 -0.000434898044279197
4687 856 -0.0166666666666667
4687 4687 0.0193915158406404
4687 4688 -0.00118503856970659
4688 846 -0.000435244580341264
4688 4687 -0.00125973026996142
4688 4688 0.0194671300235494
4689 860 -0.000437741651795141
4689 861 -0.0166666666666667
4689 4689 0.0194580790950915
4689 4690 -0.00124178531210186
4690 860 -0.000432457178334904
4690 4689 -0.00118263497490555
4690 4690 0.0193754724111637
4691 860 -0.0166666666666667
4691 862 0.0
4691 4691 0.0173081480358037
4691 4692 -0.000133922698934494
4692 862 -0.0166666666666667
4692 4691 -2.44895773689185e-05
4692 4692 0.0178635891343981
4693 859 -0.0166666666666667
4693 4693 0.0193849898137051
4693 4694 -0.00118151827368069
4694 4693 -0.00125483132565948
4694 4694 0.0194632328928431
4695 846 -0.0166666666666667
4695 863 -0.000134626819469867
4695 4695 0.0172960572372906
4695 4696 -5.67482454000283e-06
4696 863 -0.000143889375445472
4696 4695 -1.17224517748024e-07
4696 4696 0.0178189579824736
4697 861 -0.000138908713201795
4697 863 -0.0166666666666667
4697 4697 0.0177036794314488
4697 4698 -4.99375406900952e-07
4698 861 -0.000139607481713544
4698 4697 -3.06504126161977e-08
4698 4698 0.0178139944442498
4699 865 -0.000597713125202046
4699 4699 0.0184421024561668
4699 4700 -2.40246210218879e-05
4700 863 -0.0166666666666667
4700 865 -7.5218129186892e-05
4700 4699 -8.94165394995071e-05
4700 4700 0.0177137736588962
4701 865 -0.0166666666666667
4701 866 -0.000242422521139259
4701 4701 0.0186079235147511
4701 4702 -0.000925379800643594
4702 866 -0.000626419769058459
4702 4701 -0.000750380380436991
4702 4702 0.0191586075383835
4703 866 -0.0166666666666667
4703 868 0.0
4703 4703 0.0177029162142695
4703 4704 -0.000245143979550076
4704 867 -0.0166666666666667
4704 868 0.0
4704 4703 -0.000193968097316926
4704 4704 0.0179475102930651
4705 867 -0.0166666666666667
4705 868 -0.000138219319560301
4705 4705 0.0173460971401947
4705 4706 -1.32223121416671e-06
4706 868 -0.000140296875355038
4706 4705 -2.90712390926594e-08
4706 4706 0.0178148169771683
4707 868 -0.0166666666666667
4707 4707 0.0193485878399233
4707 4708 -0.00118081271609364
4708 4707 -0.00123880031430751
4708 4708 0.0194575794108942
4709 859 -0.000138412525549366
4709 862 -0.0166666666666667
4709 4709 0.0173348680988957
4709 4710 -1.07451126571116e-06
4710 859 -0.000140103669365973
4710 4709 -2.2898883575383e-08
4710 4710 0.0178145682418864
4711 807 -0.000138396653972959
4711 845 -0.0166666666666667
4711 4711 0.0172964916756992
4711 4712 -1.07696768439273e-06
4712 807 -0.00014011954094238
4712 845 0.0
4712 846 0.0
4712 847 -0.0166666666666667
4712 4711 -2.12265241962166e-08
4712 4712 0.0178142558899423
4713 869 -0.0166666666666667
4713 870 -0.000439265966752187
4713 4713 0.0193599454053489
4713 4714 -0.00113826963448309
4714 870 -0.000430980430216654
4714 4713 -0.00109078026057308
4714 4714 0.0192764822629945
4715 870 -0.0166666666666667
4715 872 -0.00013840885605369
4715 4715 0.0173126647078671
4715 4716 -1.06961747895518e-06
4716 872 -0.000140107338861649
4716 4715 -2.17461924902823e-08
4716 4716 0.0178145678787865
4717 873 -0.000908412791146941
4717 4717 0.0187342113122532
4717 4718 -5.70572508916922e-05
4718 870 -0.0166666666666667
4718 873 0.000235481536758003
4718 4717 -0.000453812905743477
4718 4718 0.0173662393449596
4719 873 -0.0166666666666667
4719 874 -0.000127171079349847
4719 4719 0.0173902724631263
4719 4720 -1.55576910986749e-05
4720 874 -0.000545760175039092
4720 4719 -6.12976885063492e-06
4720 4720 0.0183343607371364
4721 874 -0.0166666666666667
4721 4721 0.0190435223900499
4721 4722 -0.00111910146500586
4722 875 -0.0166666666666667
4722 4721 -0.00109812314311904
4722 4722 0.0192002058225646
4723 875 -0.0166666666666667
4723 4723 0.019181033630952
4723 4724 -0.0011754793176124
4724 4723 -0.00116112312176441
4724 4724 0.019433530008258
4725 872 -0.0166666666666667
4725 876 -0.000437246082492379
4725 4725 0.019471265410841
4725 4726 -0.00125665050313407
4726 876 -0.000432940746439988
4726 4725 -0.00119439354715174
4726 4726 0.0193897929840028
4727 877 -0.00013891025004369
4727 878 -0.0166666666666667
4727 4727 0.0177492505912984
4727 4728 -5.1799610155156e-07
4727 4774 0.0
4728 877 -0.000139605944871649
4728 4727 -4.97281655052261e-08
4728 4728 0.0178140139712071
4729 879 -0.0166666666666667
4729 880 -0.000435068797988044
4729 4729 0.0193884456575911
4729 4730 -0.0011812225646631
4730 880 -0.00043506999952866
4730 4729 -0.00125614320010758
4730 4730 0.0194633694941631
4731 880 -0.0166666666666667
4731 882 -0.000138286797863402
4731 4731 0.0172964735659095
4731 4732 -1.21295694635544e-06
4732 882 -0.000140229397051937
4732 4731 -2.39712911883835e-08
4732 4732 0.0178147058443772
4733 883 -0.000140230675945466
4733 4733 0.017814707105239
4733 4734 -2.40034008201302e-08
4734 880 -0.0166666666666667
4734 883 -0.000138285518969873
4734 4733 -1.2145347934095e-06
4734 4734 0.017296473579871
4735 882 -0.0166666666666667
4735 885 -0.000435067366048129
4735 4735 0.0193887190916836
4735 4736 -0.00118150231844086
4736 885 -0.000435071463729721
4736 4735 -0.00125642659983513
4736 4736 0.0194636542898556
4737 877 -0.000138289604026781
4737 885 -0.0166666666666667
4737 4737 0.0172964367943915
4737 4738 -1.20918365724228e-06
4738 838 0.0
4738 877 -0.000140226590888558
4738 884 0.0
4738 885 0.0
4738 886 -0.0166666666666667
4738 4737 -2.39065653681596e-08
4738 4738 0.017814455519699
4738 4739 0.0
4739 884 -0.000434971116348022
4739 886 -0.0166666666666667
4739 4738 0.0
4739 4739 0.0193887668592459
4739 4740 -0.00118196881219208
4740 884 -0.000435169879709119
4740 4739 -0.00125672668568809
4740 4740 0.0194640540662835
4741 838 -0.000138283560982178
4741 884 -0.0166666666666667
4741 4741 0.0172963729635307
4741 4742 -1.21683863414542e-06
4742 838 -0.000140232633933161
4742 4741 -2.40483845199339e-08
4742 4742 0.0178146601266745
4743 883 -0.0166666666666667
4743 888 -0.000435021966445662
4743 4743 0.0193888428213916
4743 4744 -0.00118183173664951
4744 888 -0.000435117885588834
4744 4743 -0.00125667757246278
4744 4744 0.0194639441484455
4745 838 -0.000138290646200933
4745 888 -0.0166666666666667
4745 4745 0.0172963909863182
4745 4746 -1.20749743554915e-06
4746 838 -0.000140225548714406
4746 887 0.0
4746 888 0.0
4746 889 -0.0166666666666667
4746 4745 -2.38879039025342e-08
4746 4746 0.0178141338836765
4746 4747 0.0
4747 887 -0.000434863867040502
4747 889 -0.0166666666666667
4747 4746 0.0
4747 4747 0.0193878886191347
4747 4748 -0.00118150841007671
4748 887 -0.000435279543030525
4748 4747 -0.0012560731965783
4748 4748 0.0194635600909605
4749 877 -0.000138286261066745
4749 887 -0.0166666666666667
4749 4749 0.0172964345130826
4749 4750 -1.21359829368121e-06
4750 877 -0.000140229933848595
4750 4749 -2.39825539017365e-08
4750 4750 0.0178147062946855
4751 891 -0.000434132178542881
4751 892 -0.0166666666666667
4751 4751 0.0193531521576786
4751 4752 -0.0011498543786829
4752 891 -0.000436028452917342
4752 4751 -0.00122237980995592
4752 4752 0.01943072154054
4753 891 -0.0166666666666667
4753 893 0.0
4753 4753 0.017311291077701
4753 4754 -0.000138259364869726
4754 893 -0.0166666666666667
4754 4753 -2.53865275619669e-05
4754 4754 0.0178692219193366
4755 890 -0.0166666666666667
4755 4755 0.0193634106886295
4755 4756 -0.0011810882965399
4756 4755 -0.00124536794787297
4756 4756 0.0194595580858667
4757 877 -0.0166666666666667
4757 894 -0.000435055172719591
4757 4757 0.0193880971906137
4757 4758 -0.00118092995363368
4758 894 -0.000435083932013876
4758 4757 -0.00125581995532966
4758 4758 0.0194630638101404
4759 892 -0.000138261303887879
4759 894 -0.0166666666666667
4759 4759 0.0172965125754465
4759 4760 -1.24443577379881e-06
4760 892 -0.00014025489102746
4760 4759 -2.46135293977141e-08
4760 4760 0.0178147384420491
4761 896 -0.000140250006846153
4761 4761 0.017814732193773
4761 4762 -2.44908832673502e-08
4762 894 -0.0166666666666667
4762 896 -0.000138266188069186
4762 4761 -1.23840965646413e-06
4762 4762 0.0172965124365098
4763 896 -0.0166666666666667
4763 897 -0.000434308550272304
4763 4763 0.0193565226857274
4763 4764 -0.00115249079254224
4764 897 -0.0004358479290006
4764 4763 -0.00122539133752112
4764 4764 0.0194335197239201
4765 897 -0.0166666666666667
4765 898 0.0
4765 4765 0.0173108110555817
4765 4766 -0.000137635748516305
4766 898 -0.0166666666666667
4766 4765 -2.52486224725561e-05
4766 4766 0.0178684051256847
4767 898 -0.0166666666666667
4767 899 -0.000138290733082335
4767 4767 0.0173357792453363
4767 4768 -1.22767822040641e-06
4768 899 -0.000140225461833005
4768 4767 -2.63227891208893e-08
4768 4768 0.017814722076075
4769 899 -0.0166666666666667
4769 4769 0.0193641798143364
4769 4770 -0.0011811017776483
4770 4769 -0.00124570774851648
4770 4770 0.0194596602740229
4771 890 -0.000138286150716901
4771 893 -0.0166666666666667
4771 4771 0.0173359378633642
4771 4772 -1.23349702618485e-06
4772 890 -0.000140230044198438
4772 4771 -2.64605455567292e-08
4772 4772 0.0178147283869347
4773 838 -0.000138898978959791
4773 876 -0.0166666666666667
4773 4773 0.0172963799080419
4773 4774 -4.28620398176469e-07
4774 838 -0.000139617215955548
4774 876 0.0
4774 877 0.0
4774 878 -0.0166666666666667
4774 4727 0.0
4774 4773 -9.51229877766877e-09
4774 4774 0.0177495879055482
4775 900 -0.0166666666666667
4775 901 -0.000435314260356761
4775 4775 0.018885463474345
4775 4776 -0.000676888990402599
4776 901 -0.000434838234146065
4776 4775 -0.000626119914025915
4776 4776 0.0188324542389333
4777 901 -0.0166666666666667
4777 903 -0.000138672811291356
4777 4777 0.0174062644632393
4777 4778 -7.65751518464876e-07
4778 903 -0.000139843383623983
4778 4777 -1.90291660309238e-08
4778 4778 0.0178142630110634
4779 904 -0.00080739925652819
4779 4779 0.0187657880254245
4779 4780 -0.000183877623767562
4780 901 -0.0166666666666667
4780 904 1.13123198788524e-05
4780 4779 -0.000512857774623407
4780 4780 0.0177330837430943
4781 904 -0.0166666666666667
4781 905 -0.000135236541601312
4781 4781 0.0173279990759568
4781 4782 -5.05927466613655e-06
4782 905 -0.000143279653314028
4782 4781 -1.09939898040709e-07
4782 4782 0.0178189142396055
4783 905 -0.0166666666666667
4783 4783 0.0191837858462441
4783 4784 -0.00115261553028868
4784 906 -0.0166666666666667
4784 4783 -0.00116715939594671
4784 4784 0.0193075010029013
4785 906 -0.0166666666666667
4785 4785 0.0192715504745154
4785 4786 -0.00117898318409425
4786 4785 -0.00120392394815805
4786 4786 0.0194477863480717
4787 903 -0.0166666666666667
4787 907 -0.000439089603173897
4787 4787 0.0194766613131175
4787 4788 -0.00125584159683253
4788 907 -0.000431138112796988
4788 4787 -0.00120362800929754
4788 4788 0.019389715806857
4789 908 -0.000434939104555981
4789 909 -0.0166666666666667
4789 4789 0.0193916866769025
4789 4790 -0.00118504095747397
4790 908 -0.000435202600400863
4790 4789 -0.00125980517264372
4790 4790 0.0194671524138403
4791 910 -0.0166666666666667
4791 911 -0.000138286681738251
4791 4791 0.0172964393783541
4791 4792 -1.21308200634947e-06
4792 911 -0.000140229513177088
4792 4791 -2.39722661929319e-08
4792 4792 0.0178147059781513
4793 911 -0.0166666666666667
4793 913 -0.000435068884543962
4793 4793 0.0193887306635064
4793 4794 -0.00118150726985586
4794 913 -0.000435069911017713
4794 4793 -0.00125643445843001
4794 4794 0.01946366058676
4795 914 -0.000139258110569848
4795 4795 0.0178144315994209
4795 4796 -9.33513695241502e-07
4796 911 -0.0166666666666667
4796 914 -0.000139258084345492
4796 4795 -9.33532505083072e-07
4796 4796 0.017814430309855
4797 913 -0.0166666666666667
4797 916 -0.000138279010827209
4797 4797 0.0172964363725437
4797 4798 -1.22254522732879e-06
4798 916 -0.00014023718408813
4798 4797 -2.41646449186064e-08
4798 4798 0.0178147146809154
4799 908 -0.000434989974551209
4799 916 -0.0166666666666667
4799 4799 0.0193910369723533
4799 4800 -0.00118493531739844
4800 869 0.0
4800 908 -0.000435150588238854
4800 915 0.0
4800 916 0.0
4800 917 -0.0166666666666667
4800 4799 -0.00125956508720873
4800 4800 0.0194660938594058
4800 4801 0.0
4801 915 -0.00043487268819973
4801 917 -0.0166666666666667
4801 4800 0.0
4801 4801 0.0193875426850105
4801 4802 -0.00118112079243948
4802 915 -0.000435270525682074
4802 4801 -0.00125569403179518
4802 4802 0.0194631751773722
4803 869 -0.000138392690175635
4803 915 -0.0166666666666667
4803 4803 0.0172964832718377
4803 4804 -1.08242532544914e-06
4804 869 -0.000140123504739704
4804 4803 -2.1316199180485e-08
4804 4804 0.0178145871219506
4805 914 -0.0166666666666667
4805 919 -0.000435080068181976
4805 4805 0.0194635173293557
4805 4806 -0.00125625484210198
4806 919 -0.000435058951262029
4806 4805 -0.00118139703587941
4806 4806 0.0193885626975773
4807 869 -0.00013893689554696
4807 919 -0.0166666666666667
4807 4807 0.0172964444169705
4807 4808 -3.83811762342744e-07
4808 869 -0.000139579299368379
4808 908 0.0
4808 918 0.0
4808 919 0.0
4808 920 -0.0166666666666667
4808 4807 -8.49109393347175e-09
4808 4808 0.0177500579574622
4809 918 -0.000138909064921109
4809 920 -0.0166666666666667
4809 4809 0.0177497183043299
4809 4810 -5.20324484157912e-07
4810 918 -0.00013960712999423
4810 4809 -5.04600292032754e-08
4810 4810 0.0178140160927339
4811 908 -0.000434898044011627
4811 918 -0.0166666666666667
4811 4811 0.0193915158396935
4811 4812 -0.00118503856986224
4812 908 -0.000435244580614825
4812 4811 -0.00125973026964695
4812 4812 0.019467130023572
4813 922 -0.000437741651794767
4813 923 -0.0166666666666667
4813 4813 0.0194580790950903
4813 4814 -0.00124178531210191
4814 922 -0.00043245717833527
4814 4813 -0.00118263497490353
4814 4814 0.0193754724111636
4815 922 -0.0166666666666667
4815 924 0.0
4815 4815 0.0173081480358037
4815 4816 -0.000133922698934497
4816 924 -0.0166666666666667
4816 4815 -2.44895773689181e-05
4816 4816 0.0178635891343981
4817 921 -0.0166666666666667
4817 4817 0.0193849898137051
4817 4818 -0.00118151827368069
4818 4817 -0.00125483132565948
4818 4818 0.0194632328928431
4819 908 -0.0166666666666667
4819 925 -0.000134626819467095
4819 4819 0.0172960572372684
4819 4820 -5.67482454330607e-06
4820 925 -0.000143889375448245
4820 4819 -1.1722451781305e-07
4820 4820 0.0178189579824768
4821 923 -0.000138908713201776
4821 925 -0.0166666666666667
4821 4821 0.0177036794314212
4821 4822 -4.99375406920812e-07
4822 923 -0.000139607481713563
4822 4821 -3.06504126126849e-08
4822 4822 0.0178139944442498
4823 927 -0.000597713125208466
4823 4823 0.0184421024561693
4823 4824 -2.40246210175965e-05
4824 925 -0.0166666666666667
4824 927 -7.52181291804723e-05
4824 4823 -8.94165395041287e-05
4824 4824 0.0177137736588655
4825 927 -0.0166666666666667
4825 928 -0.00024242252113733
4825 4825 0.0186079235147469
4825 4826 -0.000925379800643237
4826 928 -0.000626419769060301
4826 4825 -0.000750380380434691
4826 4826 0.0191586075383829
4827 928 -0.0166666666666667
4827 930 0.0
4827 4827 0.0177029162142689
4827 4828 -0.000245143979549886
4828 929 -0.0166666666666667
4828 930 0.0
4828 4827 -0.000193968097316642
4828 4828 0.017947510293065
4829 929 -0.0166666666666667
4829 930 -0.000138219319560301
4829 4829 0.0173460971401947
4829 4830 -1.32223121416699e-06
4830 930 -0.000140296875355038
4830 4829 -2.90712390925843e-08
4830 4830 0.0178148169771683
4831 930 -0.0166666666666667
4831 4831 0.0193485878399233
4831 4832 -0.00118081271609364
4832 4831 -0.0012388003143075
4832 4832 0.0194575794108942
4833 921 -0.000138412525549366
4833 924 -0.0166666666666667
4833 4833 0.0173348680988957
4833 4834 -1.07451126571121e-06
4834 921 -0.000140103669365973
4834 4833 -2.28988835753841e-08
4834 4834 0.0178145682418864
4835 869 -0.000138396652402614
4835 907 -0.0166666666666667
4835 908 0.0
4835 4835 0.0172964916755905
4835 4836 -1.07696962013746e-06
4836 869 -0.000140119542512725
4836 908 0.0
4836 909 -0.0166666666666667
4836 4835 -2.12265636585413e-08
4836 4836 0.0178142558877735
4837 931 -0.0166666666666667
4837 932 -0.00043507325018972
4837 4837 0.0194634066063344
4837 4838 -0.00125616762178685
4838 932 -0.000435065618982948
4838 4837 -0.0011812693211514
4838 4838 0.0193884733114783
4839 932 -0.0166666666666667
4839 934 -0.000138286994987186
4839 4839 0.0172964705688707
4839 4840 -1.21271180256684e-06
4840 934 -0.000140229199928154
4840 4839 -2.39661812368391e-08
4840 4840 0.0178147053610642
4841 935 -0.000140261879841764
4841 4841 0.0178147467538722
4841 4842 -2.47866380946762e-08
4842 932 -0.0166666666666667
4842 935 -0.000138254315073576
4842 4841 -1.25303449493683e-06
4842 4842 0.0172964714736014
4843 935 -0.0166666666666667
4843 936 -0.000433888695127137
4843 4843 0.0193344334821136
4843 4844 -0.00113217480938375
4844 936 -0.000436278193993205
4844 4843 -0.00120384249982521
4844 4844 0.0194124575348415
4845 936 -0.0166666666666667
4845 4845 0.0173153477755208
4845 4846 -0.000148526207309566
4846 937 -0.0166666666666667
4846 4845 -2.70609262604331e-05
4846 4846 0.0178819709504901
4847 937 -0.0166666666666667
4847 4847 0.0173381030673696
4847 4848 -1.04900286329099e-06
4848 4847 -2.22893784193114e-08
4848 4848 0.0178148086104072
4849 934 -0.0166666666666667
4849 938 -0.000435076232841127
4849 4849 0.0194629909526723
4849 4850 -0.00125574648914054
4850 938 -0.000435062702151373
4850 4849 -0.00118086398896643
4850 4850 0.0193880551117545
4851 939 -0.000437347517893397
4851 940 -0.0166666666666667
4851 4851 0.01942216595346
4851 4852 -0.00120710615390273
4852 939 -0.000432844697077642
4852 4851 -0.00114701564680455
4852 4852 0.0193420430171151
4853 941 -0.0166666666666667
4853 942 -0.00013828696231586
4853 4853 0.0172964394653271
4853 4854 -1.21273580815533e-06
4854 942 -0.000140229232599479
4854 4853 -2.39652296206953e-08
4854 4854 0.0178147056312705
4855 942 -0.0166666666666667
4855 944 -0.000435079351261626
4855 4855 0.0194632895210797
4855 4856 -0.0012560293537226
4856 944 -0.000435059652438656
4856 4855 -0.00118117290840525
4856 4856 0.0193883427513572
4857 945 -0.000139257846415801
4857 4857 0.0178144326340144
4857 4858 -9.35645690836053e-07
4858 942 -0.0166666666666667
4858 945 -0.000139258348499538
4858 4857 -9.34844351950365e-07
4858 4858 0.017814457721628
4859 944 -0.0166666666666667
4859 947 -0.000138392757283109
4859 4859 0.0172964863338697
4859 4860 -1.08230807367248e-06
4860 947 -0.00014012343763223
4860 4859 -2.13147023989074e-08
4860 4860 0.0178145859435818
4861 939 -0.000436241571863409
4861 947 -0.0166666666666667
4861 4861 0.0194296915933113
4861 4862 -0.00121631545945459
4862 900 0.0
4862 939 -0.000433925164846825
4862 946 0.0
4862 947 0.0
4862 948 -0.0166666666666667
4862 4861 -0.0011581991828074
4862 4862 0.0193618156735865
4862 4863 0.0
4863 946 -0.000438043455875436
4863 948 -0.0166666666666667
4863 4862 0.0
4863 4863 0.0194737697407992
4863 4864 -0.00125646773106411
4864 946 -0.000432161023931338
4864 4863 -0.00119862135208016
4864 4864 0.019389915474859
4865 900 -0.000138285724464454
4865 946 -0.0166666666666667
4865 4865 0.0172964142795967
4865 4866 -1.21419135139914e-06
4866 900 -0.000140230470450886
4866 4865 -2.39964322444068e-08
4866 4866 0.0178146576430188
4867 945 -0.0166666666666667
4867 950 -0.000435030730220608
4867 4867 0.0193888829829567
4867 4868 -0.00118183195684604
4868 950 -0.000435108924522503
4868 4867 -0.0012566944419815
4868 4868 0.0194639537546182
4869 900 -0.000138897585402014
4869 950 -0.0166666666666667
4869 4869 0.0172963763508956
4869 4870 -4.30379165314042e-07
4870 900 -0.000139618609513325
4870 939 0.0
4870 949 0.0
4870 950 0.0
4870 951 -0.0166666666666667
4870 4869 -9.54521092502658e-09
4870 4870 0.0177499308188321
4871 949 -0.000138935446888225
4871 951 -0.0166666666666667
4871 4871 0.0177495927166553
4871 4872 -4.81441843847051e-07
4872 949 -0.000139580748027114
4872 4871 -4.6454437853978e-08
4872 4872 0.0178139831899021
4873 939 -0.00043780369377987
4873 949 -0.0166666666666667
4873 4873 0.0194236847721565
4873 4874 -0.00120708640519091
4874 939 -0.000432399238650052
4874 4873 -0.00114950911636884
4874 4874 0.0193421924466846
4875 953 -0.000388025614613707
4875 954 -0.0166666666666667
4875 4875 0.0185549551170715
4875 4876 -0.000518655138222936
4876 953 -0.000483301313684788
4876 4875 -0.000503294505756779
4876 4876 0.018778435316986
4877 953 -0.0166666666666667
4877 955 0.0
4877 4877 0.0182536262402053
4877 4878 -0.000776619709920084
4878 955 -0.0166666666666667
4878 4877 -0.000562462921602506
4878 4878 0.0186715804513362
4879 952 -0.0166666666666667
4879 4879 0.0173100319756059
4879 4880 -1.16274420326913e-06
4880 4879 -2.33382192352905e-08
4880 4880 0.0178149543965509
4881 939 -0.0166666666666667
4881 956 0.000211434099434619
4881 4881 0.0173387404346212
4881 4882 -0.000414251929427216
4882 956 -0.000884365353823558
4882 4881 -3.94234709446027e-05
4882 4882 0.0187007563880755
4883 954 -0.000137258701832956
4883 956 -0.0166666666666667
4883 4883 0.0174281634389273
4883 4884 -2.59053351753129e-06
4884 954 -0.000141257493082383
4884 4883 -7.07336094321511e-08
4884 4884 0.0178159320930475
4885 958 -0.000140017356100088
4885 4885 0.0178139865856734
4885 4886 -2.63668001789774e-08
4886 956 -0.0166666666666667
4886 958 -0.000138498838815252
4886 4885 -9.95973199358267e-07
4886 4886 0.0174281413140942
4887 958 -0.0166666666666667
4887 959 -0.000427230082581125
4887 4887 0.019347414547829
4887 4888 -0.00117159827098749
4888 959 -0.000443079920816016
4888 4887 -0.00123277679909749
4888 4888 0.0194498157758569
4889 959 -0.0166666666666667
4889 961 0.0
4889 4889 0.0172976663726301
4889 4890 -3.28919335683087e-07
4890 960 -0.0166666666666667
4890 961 0.0
4890 4889 -7.49716013957179e-09
4890 4890 0.0177355871461098
4891 960 -0.0166666666666667
4891 961 -0.000138850109293812
4891 4891 0.0177352147833275
4891 4892 -5.93601105003849e-07
4892 961 -0.000139666085621527
4892 4891 -4.65109349848994e-08
4892 4892 0.0178140918400187
4893 961 -0.0166666666666667
4893 4893 0.019368174878788
4893 4894 -0.00118117041740436
4894 4893 -0.00124747135029532
4894 4894 0.0194601894329671
4895 952 -0.000225281625809599
4895 955 -0.0166666666666667
4895 4895 0.0186951349558099
4895 4896 -0.00104547015467972
4896 952 -0.000643927738894807
4896 4895 -0.000851875272769233
4896 4896 0.0192724136708169
4897 900 -0.000138201697331154
4897 938 -0.0166666666666667
4897 939 0.0
4897 4897 0.0172965234506337
4897 4898 -1.52816050945488e-06
4898 900 -0.000140314497584185
4898 939 0.0
4898 940 -0.0166666666666667
4898 4897 -2.58479543060505e-08
4898 4898 0.0178205642139423
4899 962 -0.0166666666666667
4899 963 -0.00043506938466719
4899 2915 0.0
4899 4899 0.0193884418587672
4899 4900 -0.0011812161938153
4900 963 -0.000435069399625256
4900 4899 -0.00125613776993248
4900 4900 0.0194633634747355
4901 963 -0.0166666666666667
4901 965 -0.000138286858107372
4901 4901 0.0172964743993379
4901 4902 -1.21288305970079e-06
4902 965 -0.000140229336807968
4902 4901 -2.39698260758715e-08
4902 4902 0.0178147057814278
4903 966 -0.000140229336715336
4903 4903 0.0178147057813345
4903 4904 -2.39698237501549e-08
4904 963 -0.0166666666666667
4904 966 -0.000138286858200003
4904 4903 -1.21288294541192e-06
4904 4904 0.0172964743993367
4905 966 -0.0166666666666667
4905 967 -0.000435069384765853
4905 4905 0.0193887118629383
4905 4906 -0.00118148619757772
4906 967 -0.000435069399524314
4906 4905 -0.00125641385905375
4906 4906 0.0194636395637332
4907 967 -0.0166666666666667
4907 4907 0.0172965077542779
4907 4908 -1.02046181376419e-06
4908 968 -0.0166666666666667
4908 4907 -9.27568134856068e-08
4908 4908 0.0173051339147867
4909 968 -0.0166666666666667
4909 4909 0.0173041376239572
4909 4910 -1.17464369127415e-06
4910 4909 -2.35410465543548e-08
4910 4910 0.0178146677204709
4911 965 -0.0166666666666667
4911 969 -0.000435069381467434
4911 4911 0.0193887086342375
4911 4912 -0.00118148298373717
4912 969 -0.000435069402897059
4912 4911 -0.00125641056657932
4912 4912 0.0194636362741715
4913 970 -0.000435032871054405
4913 971 -0.0166666666666667
4913 4913 0.0193885568522767
4913 4914 -0.00118148100464545
4913 4960 0.0
4914 970 -0.00043510673586686
4914 4913 -0.00125634409504329
4914 4914 0.0194636167070039
4915 972 -0.0166666666666667
4915 973 -0.000138286695556729
4915 2933 0.0
4915 4915 0.0172964393844361
4915 4916 -1.21306495872901e-06
4916 973 -0.00014022949935861
4916 4915 -2.39719196971529e-08
4916 4916 0.0178147059624979
4917 973 -0.0166666666666667
4917 975 -0.000435069382819562
4917 4917 0.0193887087721348
4917 4918 -0.00118148311476702
4918 975 -0.000435069401514463
4918 4917 -0.00125641070333807
4918 4918 0.0194636364105121
4919 976 -0.000139258097695681
4919 4919 0.0178144318602813
4919 4920 -9.33801076426892e-07
4920 973 -0.0166666666666667
4920 976 -0.000139258097219658
4920 4919 -9.33801415168446e-07
4920 4920 0.0178144318368827
4921 975 -0.0166666666666667
4921 978 -0.000138286695005679
4921 4921 0.017296439384356
4921 4922 -1.2130656386763e-06
4922 978 -0.000140229499909661
4922 4921 -2.39719335227779e-08
4922 4922 0.0178147059631549
4923 970 -0.00043506937997779
4923 977 0.0
4923 978 -0.0166666666666667
4923 4923 0.0193887086845648
4923 4924 -0.00118148310483521
4924 970 -0.000435069404420271
4924 977 0.0
4924 979 -0.0166666666666667
4924 4923 -0.00125641066869513
4924 4924 0.0194636363135433
4925 977 -0.000435069374869375
4925 979 -0.0166666666666667
4925 4925 0.0193887084930987
4925 4926 -0.00118148287005216
4926 977 -0.000435069409643798
4926 4925 -0.00125641043857266
4926 4926 0.0194636361542638
4927 931 -0.000138286799284914
4927 977 -0.0166666666666667
4927 4927 0.0172964394138493
4927 4928 -1.21293697133387e-06
4928 931 -0.000140229395630425
4928 4927 -2.39693181051816e-08
4928 4928 0.0178147058357341
4929 976 -0.0166666666666667
4929 981 -0.000435069380937729
4929 4929 0.0193887813829541
4929 4930 -0.00118155573441382
4930 981 -0.000435069403438678
4930 4929 -0.00125648495565761
4930 4930 0.0194637106641438
4931 931 -0.000138900300230182
4931 980 0.0
4931 981 -0.0166666666666667
4931 4931 0.0172964151706326
4931 4932 -4.27064219430228e-07
4932 931 -0.000139615894685157
4932 980 0.0
4932 982 -0.0166666666666667
4932 4931 -9.47752965014964e-09
4932 4932 0.017749599709657
4933 980 -0.000138910376350832
4933 982 -0.0166666666666667
4933 4933 0.0177492252668765
4933 4934 -5.17779586424548e-07
4934 980 -0.000139605818564507
4934 4933 -4.96801880864811e-08
4934 4934 0.0178140139541973
4935 970 -0.000435069383385272
4935 980 -0.0166666666666667
4935 4935 0.0193887087741046
4935 4936 -0.00118148311448063
4936 970 -0.000435069400936005
4936 4935 -0.00125641070402467
4936 4936 0.0194636364104065
4937 984 -0.000138286695016626
4937 985 -0.0166666666666667
4937 4937 0.0172964393844561
4937 4938 -1.2130656252449e-06
4938 984 -0.000140229499898714
4938 4937 -2.39719332530519e-08
4938 4938 0.0178147059631618
4939 983 0.0
4939 984 -0.0166666666666667
4939 4939 0.0193887976612396
4939 4940 -0.00118157208094087
4940 983 0.0
4940 986 -0.0166666666666667
4940 4939 -0.00125650164849242
4940 4940 0.0194637273068685
4941 983 -0.0166666666666667
4941 4941 0.0172964393844281
4941 4942 -1.21306464654855e-06
4942 4941 -2.39719133479159e-08
4942 4942 0.0178147059621873
4943 970 -0.0166666666666667
4943 987 -0.000138286695554653
4943 4943 0.0172964393843868
4943 4944 -1.21306496126475e-06
4944 987 -0.000140229499360686
4944 4943 -2.39719197464163e-08
4944 4944 0.0178147059625003
4945 985 -0.000435069382752795
4945 987 -0.0166666666666667
4945 4945 0.019388708771105
4945 4946 -0.00118148311400551
4946 985 -0.000435069401582734
4946 4945 -0.00125641070244319
4946 4946 0.0194636364097086
4947 989 -0.000139258097697407
4947 4947 0.0178144318601936
4947 4948 -9.33800972552975e-07
4948 987 -0.0166666666666667
4948 989 -0.000139258097217932
4948 4947 -9.33801313750166e-07
4948 4948 0.0178144318366254
4949 989 -0.0166666666666667
4949 990 -0.000435069384823893
4949 4949 0.0193887815133764
4949 4950 -0.00118155584777764
4950 990 -0.000435069399464952
4950 4949 -0.00125648507876439
4950 4950 0.0194637107833691
4951 990 -0.0166666666666667
4951 991 0.0
4951 4951 0.0172964151566877
4951 4952 -4.27106377285013e-07
4952 991 -0.0166666666666667
4952 4951 -9.47849244181167e-09
4952 4952 0.0177495993062723
4953 991 -0.0166666666666667
4953 992 -0.000138910376047636
4953 4953 0.0177492248215363
4953 4954 -5.17779487315898e-07
4954 992 -0.000139605818867703
4954 4953 -4.96797136596529e-08
4954 4954 0.0178140139541107
4955 992 -0.0166666666666667
4955 4955 0.0193887977549708
4955 4956 -0.00118157208932237
4956 4955 -0.00125650168627735
4956 4956 0.0194637273908665
4957 983 -0.000435069377571565
4957 986 -0.0166666666666667
4957 4957 0.0193887087496051
4957 4958 -0.00118148311376661
4958 983 -0.000435069406880717
4958 4957 -0.00125641069305206
4958 4958 0.0194636364069747
4959 931 -0.000138288031619809
4959 969 -0.0166666666666667
4959 970 0.0
4959 4959 0.0172964393705303
4959 4960 -1.21130856871431e-06
4960 931 -0.00014022816329553
4960 970 0.0
4960 971 -0.0166666666666667
4960 4913 0.0
4960 4959 -2.39412684749744e-08
4960 4960 0.0178146131135743
