%%MatrixMarket matrix coordinate real general
%-------------------------------------------------------------------------------
% UF Sparse Matrix Collection, Tim Davis
% http://www.cise.ufl.edu/research/sparse/matrices/Rajat/rajat13
% name: Rajat/rajat13
% [Rajat/rajat13 circuit simulation matrix]
% id: 1197
% date: 2004
% author: Rajat
% ed: T. Davis
% fields: name title A Zeros id date author ed kind
% kind: circuit simulation problem
%-------------------------------------------------------------------------------
7598 7598 48922
1 1 74265.191457
1 2 -37100.35
1 4 -17463.2615
1 5 -1306.922762
1 6 -1672.287
1 7 -752.557627
1 8 -755.006211
1 9 -752.310192
1 10 -754.779726
1 11 -746.844189
1 12 -754.607128
1 13 -706.596881
1 14 -754.472283
1 15 -576.38184
1 16 -754.385602
1 17 -470.13212
1 18 -754.355263
1 21 -24.01
1 25 -21.254
1 29 -766.175
1 32 -19.351
1 36 -29.0075
1 40 -767.7
1 46 -16.8765
1 48 -16.882
1 50 -41.117
1 51 -41.1965
1 53 -132.8115
1 54 -132.228
1 145 -17.2055
1 149 -17.185
1 171 -20.1005
1 175 -17.0165
1 239 -15.837
1 243 -15.7255
1 649 -0.09761
1 650 -0.127388
1 651 -0.09761
1 652 -0.127388
1 653 -0.09761
1 654 -0.127388
1 655 -0.146062
1 656 -0.088114
1 657 -0.146062
1 658 -0.088114
1 659 -0.146062
1 660 -0.088114
1 662 -19.606396
1 663 -19.606396
1 665 -19.606396
1 666 -19.606396
1 672 -16.8765
1 674 -16.882
1 675 -41.117
1 676 -41.1965
1 677 -132.8115
1 678 -132.228
1 769 -17.2055
1 773 -17.185
1 795 -20.1005
1 799 -17.0165
1 863 -15.837
1 867 -15.7255
1 1273 -0.162032
1 1274 -0.084354
1 1275 -0.162032
1 1276 -0.084354
1 1277 -0.162032
1 1278 -0.084354
1 1279 -0.263806
1 1280 -0.073517
1 1281 -0.263806
1 1282 -0.073517
1 1283 -0.263806
1 1284 -0.073517
1 1286 -19.606396
1 1287 -19.606396
1 1289 -19.606396
1 1290 -19.606396
1 1296 -16.8765
1 1298 -16.882
1 1299 -41.117
1 1300 -41.1965
1 1301 -132.8115
1 1302 -132.228
1 1393 -17.2055
1 1397 -17.185
1 1419 -20.1005
1 1423 -17.0165
1 1487 -15.837
1 1491 -15.7255
1 1897 -0.28441
1 1898 -0.072588
1 1899 -0.28441
1 1900 -0.072588
1 1901 -0.28441
1 1902 -0.072588
1 1903 -0.38366
1 1904 -0.069656
1 1905 -0.38366
1 1906 -0.069656
1 1907 -0.38366
1 1908 -0.069656
1 1910 -19.606396
1 1911 -19.606396
1 1913 -19.606396
1 1914 -19.606396
1 1918 -16.8765
1 1920 -16.882
1 1921 -41.117
1 1922 -41.1965
1 1923 -132.8115
1 1924 -132.228
1 2015 -17.2055
1 2019 -17.185
1 2041 -20.1005
1 2045 -17.0165
1 2109 -15.837
1 2113 -15.7255
1 2519 -0.398983
1 2520 -0.069444
1 2521 -0.398983
1 2522 -0.069444
1 2523 -0.398983
1 2524 -0.069444
1 2525 -0.484325
1 2526 -0.068156
1 2527 -0.484325
1 2528 -0.068156
1 2529 -0.484325
1 2530 -0.068156
1 2532 -19.606396
1 2533 -19.606396
1 2535 -19.606396
1 2536 -19.606396
1 2540 -16.8765
1 2542 -16.882
1 2544 -41.117
1 2545 -41.1965
1 2547 -132.8115
1 2548 -132.228
1 2639 -17.2055
1 2643 -17.185
1 2731 -15.837
1 2735 -15.7255
1 3141 -0.426304
1 3142 -0.071168
1 3143 -0.426304
1 3144 -0.071168
1 3145 -0.426304
1 3146 -0.071168
1 3147 -0.637557
1 3148 -0.066644
1 3149 -0.637557
1 3150 -0.066644
1 3151 -0.637557
1 3152 -0.066644
1 3154 -19.606396
1 3155 -19.606396
1 3157 -19.606396
1 3158 -19.606396
1 3162 -16.8765
1 3164 -16.882
1 3166 -41.117
1 3167 -41.1965
1 3169 -132.8115
1 3170 -132.228
1 3261 -17.2055
1 3265 -17.185
1 3353 -15.837
1 3357 -15.7255
1 3763 -0.352006
1 3764 -0.074411
1 3765 -0.352006
1 3766 -0.074411
1 3767 -0.352006
1 3768 -0.074411
1 3769 -0.401092
1 3770 -0.071948
1 3771 -0.401092
1 3772 -0.071948
1 3773 -0.401092
1 3774 -0.071948
1 3776 -19.606396
1 3777 -19.606396
1 3779 -19.606396
1 3780 -19.606396
1 3784 -16.8765
1 3786 -16.882
1 3788 -41.117
1 3789 -41.1965
1 3791 -132.8115
1 3792 -132.228
1 3883 -17.2055
1 3887 -17.185
1 3975 -15.837
1 3979 -15.7255
1 4385 -0.388041
1 4386 -0.072696
1 4387 -0.388041
1 4388 -0.072696
1 4389 -0.388041
1 4390 -0.072696
1 4391 -0.350614
1 4392 -0.07455
1 4393 -0.350614
1 4394 -0.07455
1 4395 -0.350614
1 4396 -0.07455
1 4398 -19.606396
1 4399 -19.606396
1 4401 -19.606396
1 4402 -19.606396
1 4406 -16.8765
1 4408 -16.882
1 4410 -41.117
1 4411 -41.1965
1 4413 -132.8115
1 4414 -132.228
1 4505 -17.2055
1 4509 -17.185
1 4597 -15.837
1 4601 -15.7255
1 5007 -0.468178
1 5008 -0.069834
1 5009 -0.468178
1 5010 -0.069834
1 5011 -0.468178
1 5012 -0.069834
1 5013 -0.405534
1 5014 -0.072034
1 5015 -0.405534
1 5016 -0.072034
1 5017 -0.405534
1 5018 -0.072034
1 5020 -19.606396
1 5021 -19.606396
1 5023 -19.606396
1 5024 -19.606396
1 5028 -16.8765
1 5030 -16.882
1 5032 -41.117
1 5033 -41.1965
1 5035 -132.8115
1 5036 -132.228
1 5127 -17.2055
1 5131 -17.185
1 5219 -15.837
1 5223 -15.7255
1 5629 -0.506579
1 5630 -0.0685
1 5631 -0.506579
1 5632 -0.0685
1 5633 -0.506579
1 5634 -0.0685
1 5635 -0.49101
1 5636 -0.069182
1 5637 -0.49101
1 5638 -0.069182
1 5639 -0.49101
1 5640 -0.069182
1 5642 -19.606396
1 5643 -19.606396
1 5645 -19.606396
1 5646 -19.606396
1 5650 -16.8765
1 5652 -16.882
1 5653 -41.117
1 5654 -41.1965
1 5655 -132.8115
1 5656 -132.228
1 5747 -17.2055
1 5751 -17.185
1 5839 -15.837
1 5843 -15.7255
1 6249 -0.493739
1 6250 -0.068346
1 6251 -0.493739
1 6252 -0.068346
1 6253 -0.493739
1 6254 -0.068346
1 6255 -0.518165
1 6256 -0.068165
1 6257 -0.518165
1 6258 -0.068165
1 6259 -0.518165
1 6260 -0.068165
1 6262 -19.606396
1 6263 -19.606396
1 6265 -19.606396
1 6266 -19.606396
1 6270 -16.8765
1 6272 -16.882
1 6274 -41.117
1 6275 -41.1965
1 6277 -132.8115
1 6278 -132.228
1 6369 -17.2055
1 6373 -17.185
1 6395 -20.1005
1 6399 -17.0165
1 6463 -15.837
1 6467 -15.7255
1 6873 -0.074743
1 6874 -0.343466
1 6875 -0.074743
1 6876 -0.343466
1 6877 -0.074743
1 6878 -0.343466
1 6879 -0.091114
1 6880 -0.147129
1 6881 -0.091114
1 6882 -0.147129
1 6883 -0.091114
1 6884 -0.147129
1 6886 -19.606396
1 6887 -19.606396
1 6889 -19.606396
1 6890 -19.606396
1 6894 -16.8765
1 6896 -16.882
1 6897 -41.117
1 6898 -41.1965
1 6899 -132.8115
1 6900 -132.228
1 6991 -17.2055
1 6995 -17.185
1 7017 -20.1005
1 7021 -17.0165
1 7085 -15.837
1 7089 -15.7255
1 7495 -0.068334
1 7496 -0.557631
1 7497 -0.068334
1 7498 -0.557631
1 7499 -0.068334
1 7500 -0.557631
1 7501 -0.071887
1 7502 -0.438841
1 7503 -0.071887
1 7504 -0.438841
1 7505 -0.071887
1 7506 -0.438841
1 7508 -19.606396
1 7509 -19.606396
1 7511 -19.606396
1 7512 -19.606396
1 7595 1.0
2 1 -37100.35
2 2 203587.801398
2 4 -126982.078
2 5 -1004.249
2 6 -1911.752
2 7 -252.185
2 8 -250.3055
2 9 -252.185
2 10 -250.3055
2 11 -252.185
2 12 -250.3055
2 13 -252.185
2 14 -250.3055
2 15 -252.185
2 16 -250.3055
2 17 -252.185
2 18 -250.3055
2 21 -25.9225
2 25 -35.1315
2 29 -1822.6551
2 32 -10.4785
2 36 -20.7085
2 40 -1850.8651
2 46 -9.244
2 48 -9.139
2 50 -16.5255
2 51 -16.6505
2 53 -194.2496
2 54 -197.5526
2 145 -19.5265
2 147 -0.026455
2 149 -19.5575
2 151 -0.026455
2 154 -0.026455
2 157 -0.026455
2 160 -0.026455
2 163 -0.026455
2 166 -0.026455
2 169 -0.026455
2 171 -250.3055
2 173 -0.022523
2 175 -252.185
2 177 -0.022523
2 180 -0.022523
2 183 -0.022523
2 186 -0.022523
2 189 -0.022523
2 192 -0.022523
2 195 -0.022523
2 198 -0.022523
2 201 -0.022523
2 204 -0.022523
2 207 -0.022523
2 210 -0.022523
2 213 -0.022523
2 216 -0.022523
2 219 -0.022523
2 222 -0.022523
2 225 -0.022523
2 228 -0.022523
2 231 -0.022523
2 234 -0.022523
2 237 -0.022523
2 239 -74.9745
2 240 -4.631228
2 241 -0.072106
2 242 -10.542864
2 243 -75.113
2 244 -4.650647
2 245 -0.071423
2 246 -10.540095
2 247 -4.631227
2 248 -0.072106
2 249 -9.018575
2 250 -4.650647
2 251 -0.071423
2 252 -9.015788
2 253 -4.631227
2 254 -0.072106
2 255 -9.018575
2 256 -4.650647
2 257 -0.071423
2 258 -9.015788
2 259 -4.631227
2 260 -0.072106
2 261 -9.018575
2 262 -4.650647
2 263 -0.071423
2 264 -9.015788
2 265 -4.631227
2 266 -0.072106
2 267 -9.018575
2 268 -4.650647
2 269 -0.071423
2 270 -9.015788
2 271 -4.631227
2 272 -0.072106
2 273 -9.018575
2 274 -4.650647
2 275 -0.071423
2 276 -9.015788
2 277 -4.631227
2 278 -0.072106
2 279 -9.018575
2 280 -4.650647
2 281 -0.071423
2 282 -9.015788
2 283 -4.631227
2 284 -0.072106
2 285 -9.018575
2 286 -4.650647
2 287 -0.071423
2 288 -9.015788
2 289 -4.631227
2 290 -0.072106
2 291 -9.018575
2 292 -4.650647
2 293 -0.071423
2 294 -9.015788
2 295 -4.631227
2 296 -0.072106
2 297 -9.018575
2 298 -4.650647
2 299 -0.071423
2 300 -9.015788
2 301 -4.631227
2 302 -0.072106
2 303 -9.018575
2 304 -4.650647
2 305 -0.071423
2 306 -9.015788
2 307 -4.631227
2 308 -0.072106
2 309 -9.018575
2 310 -4.650647
2 311 -0.071423
2 312 -9.015788
2 313 -4.631227
2 314 -0.072106
2 315 -9.018575
2 316 -4.650647
2 317 -0.071423
2 318 -9.015788
2 319 -4.631227
2 320 -0.072106
2 321 -9.018575
2 322 -4.650647
2 323 -0.071423
2 324 -9.015788
2 325 -4.631227
2 326 -0.072106
2 327 -9.018575
2 328 -4.650647
2 329 -0.071423
2 330 -9.015788
2 331 -4.631227
2 332 -0.072106
2 333 -9.018575
2 334 -4.650647
2 335 -0.071423
2 336 -9.015788
2 337 -4.631227
2 338 -0.072106
2 339 -9.018575
2 340 -4.650647
2 341 -0.071423
2 342 -9.015788
2 343 -4.631227
2 344 -0.072106
2 345 -9.018575
2 346 -4.650647
2 347 -0.071423
2 348 -9.015788
2 349 -4.631227
2 350 -0.072106
2 351 -9.018575
2 352 -4.650647
2 353 -0.071423
2 354 -9.015788
2 355 -4.631227
2 356 -0.072106
2 357 -9.018575
2 358 -4.650647
2 359 -0.071423
2 360 -9.015788
2 361 -4.631227
2 362 -0.072106
2 363 -9.018575
2 364 -4.650647
2 365 -0.071423
2 366 -9.015788
2 367 -4.631227
2 368 -0.072106
2 369 -9.018575
2 370 -4.650647
2 371 -0.071423
2 372 -9.015788
2 373 -4.631227
2 374 -0.072106
2 375 -9.018575
2 376 -4.650647
2 377 -0.071423
2 378 -9.015788
2 379 -4.631227
2 380 -0.072106
2 381 -9.018575
2 382 -4.650647
2 383 -0.071423
2 384 -9.015788
2 385 -4.631227
2 386 -0.072106
2 387 -9.018575
2 388 -4.650647
2 389 -0.071423
2 390 -9.015788
2 391 -4.631227
2 392 -0.072106
2 393 -9.018575
2 394 -4.650647
2 395 -0.071423
2 396 -9.015788
2 397 -4.631227
2 398 -0.072106
2 399 -9.018575
2 400 -4.650647
2 401 -0.071423
2 402 -9.015788
2 403 -4.631227
2 404 -0.072106
2 405 -9.018575
2 406 -4.650647
2 407 -0.071423
2 408 -9.015788
2 409 -4.631227
2 410 -0.072106
2 411 -9.018575
2 412 -4.650647
2 413 -0.071423
2 414 -9.015788
2 415 -4.631227
2 416 -0.072106
2 417 -9.018575
2 418 -4.650647
2 419 -0.071423
2 420 -9.015788
2 421 -4.631227
2 422 -0.072106
2 423 -9.018575
2 424 -4.650647
2 425 -0.071423
2 426 -9.015788
2 427 -4.631227
2 428 -0.072106
2 429 -9.018575
2 430 -4.650647
2 431 -0.071423
2 432 -9.015788
2 433 -4.631227
2 434 -0.072106
2 435 -9.018575
2 436 -4.650647
2 437 -0.071423
2 438 -9.015788
2 439 -4.631227
2 440 -0.072106
2 441 -9.018575
2 442 -4.650647
2 443 -0.071423
2 444 -9.015788
2 445 -4.631227
2 446 -0.072106
2 447 -9.018575
2 448 -4.650647
2 449 -0.071423
2 450 -9.015788
2 451 -4.631227
2 452 -0.072106
2 453 -9.018575
2 454 -4.650647
2 455 -0.071423
2 456 -9.015788
2 457 -4.631227
2 458 -0.072106
2 459 -9.018575
2 460 -4.650647
2 461 -0.071423
2 462 -9.015788
2 463 -4.631227
2 464 -0.072106
2 465 -9.018575
2 466 -4.650647
2 467 -0.071423
2 468 -9.015788
2 469 -4.631227
2 470 -0.072106
2 471 -9.018575
2 472 -4.650647
2 473 -0.071423
2 474 -9.015788
2 475 -4.631227
2 476 -0.072106
2 477 -9.018575
2 478 -4.650647
2 479 -0.071423
2 480 -9.015788
2 481 -4.631227
2 482 -0.072106
2 483 -9.018575
2 484 -4.650647
2 485 -0.071423
2 486 -9.015788
2 487 -4.631227
2 488 -0.072106
2 489 -9.018575
2 490 -4.650647
2 491 -0.071423
2 492 -9.015788
2 493 -4.631227
2 494 -0.072106
2 495 -9.018575
2 496 -4.650647
2 497 -0.071423
2 498 -9.015788
2 499 -4.631227
2 500 -0.072106
2 501 -9.018575
2 502 -4.650647
2 503 -0.071423
2 504 -9.015788
2 505 -7.014976
2 506 -0.072106
2 507 -9.018574
2 508 -7.043287
2 509 -0.071423
2 510 -9.015788
2 511 -1.165564
2 512 -0.062159
2 513 -2.233071
2 514 -1.060746
2 515 -0.081933
2 516 -2.237188
2 517 -1.165564
2 518 -0.062158
2 519 -1.629006
2 520 -1.060746
2 521 -0.08193
2 522 -1.630986
2 523 -1.165564
2 524 -0.062158
2 525 -1.629006
2 526 -1.060746
2 527 -0.08193
2 528 -1.630986
2 529 -1.165564
2 530 -0.062158
2 531 -1.629006
2 532 -1.060746
2 533 -0.08193
2 534 -1.630986
2 535 -1.165564
2 536 -0.062158
2 537 -1.629006
2 538 -1.060746
2 539 -0.08193
2 540 -1.630986
2 541 -1.165564
2 542 -0.062159
2 543 -2.567974
2 544 -1.060746
2 545 -0.081933
2 546 -2.573818
2 547 -0.639925
2 548 -0.025776
2 549 -1.819916
2 550 -0.639925
2 551 -0.025776
2 552 -1.819916
2 553 -0.582778
2 554 -0.02987
2 555 -1.818664
2 556 -0.582778
2 557 -0.02987
2 558 -1.818664
2 559 -2.170457
2 560 -0.242594
2 561 -7.605486
2 562 -2.957295
2 563 -0.08131
2 564 -7.587848
2 565 -2.170457
2 566 -0.24259
2 567 -6.512789
2 568 -2.957286
2 569 -0.081316
2 570 -6.495176
2 571 -2.170457
2 572 -0.24259
2 573 -6.512789
2 574 -2.957286
2 575 -0.081316
2 576 -6.495176
2 577 -2.170457
2 578 -0.242594
2 579 -7.605486
2 580 -2.957295
2 581 -0.08131
2 582 -7.587848
2 583 -3.346891
2 584 -0.0497
2 585 -8.395248
2 586 -2.356707
2 587 -0.869437
2 588 -7.883768
2 589 -3.346876
2 590 -0.049706
2 591 -7.187918
2 592 -2.356707
2 593 -0.869434
2 594 -6.67582
2 595 -3.346876
2 596 -0.049706
2 597 -7.187918
2 598 -2.356707
2 599 -0.869434
2 600 -6.67582
2 601 -3.346876
2 602 -0.049706
2 603 -7.187918
2 604 -2.356707
2 605 -0.869434
2 606 -6.67582
2 607 -3.346876
2 608 -0.049706
2 609 -7.187918
2 610 -2.356707
2 611 -0.869434
2 612 -6.67582
2 613 -3.346876
2 614 -0.049706
2 615 -7.187918
2 616 -2.356707
2 617 -0.869434
2 618 -6.67582
2 619 -3.346876
2 620 -0.049706
2 621 -7.187918
2 622 -2.356707
2 623 -0.869434
2 624 -6.67582
2 625 -3.346876
2 626 -0.049706
2 627 -7.187918
2 628 -2.356707
2 629 -0.869434
2 630 -6.67582
2 631 -3.346876
2 632 -0.049706
2 633 -7.187918
2 634 -2.356707
2 635 -0.869434
2 636 -6.67582
2 637 -3.346876
2 638 -0.049706
2 639 -7.187918
2 640 -2.356707
2 641 -0.869434
2 642 -6.67582
2 643 -5.43084
2 644 -0.049697
2 645 -7.187905
2 646 -3.876466
2 647 -0.869435
2 648 -6.67582
2 672 -9.244
2 674 -9.139
2 675 -16.5255
2 676 -16.6505
2 677 -194.2496
2 678 -197.5526
2 769 -19.5265
2 771 -0.026455
2 773 -19.5575
2 775 -0.026455
2 778 -0.026455
2 781 -0.026455
2 784 -0.026455
2 787 -0.026455
2 790 -0.026455
2 793 -0.026455
2 795 -250.3055
2 797 -0.022523
2 799 -252.185
2 801 -0.022523
2 804 -0.022523
2 807 -0.022523
2 810 -0.022523
2 813 -0.022523
2 816 -0.022523
2 819 -0.022523
2 822 -0.022523
2 825 -0.022523
2 828 -0.022523
2 831 -0.022523
2 834 -0.022523
2 837 -0.022523
2 840 -0.022523
2 843 -0.022523
2 846 -0.022523
2 849 -0.022523
2 852 -0.022523
2 855 -0.022523
2 858 -0.022523
2 861 -0.022523
2 863 -74.9745
2 864 -4.625029
2 865 -0.072318
2 866 -10.543737
2 867 -75.113
2 868 -4.656358
2 869 -0.071261
2 870 -10.539297
2 871 -4.625028
2 872 -0.072319
2 873 -9.019454
2 874 -4.656358
2 875 -0.071261
2 876 -9.014985
2 877 -4.625028
2 878 -0.072319
2 879 -9.019454
2 880 -4.656358
2 881 -0.071261
2 882 -9.014985
2 883 -4.625028
2 884 -0.072319
2 885 -9.019454
2 886 -4.656358
2 887 -0.071261
2 888 -9.014985
2 889 -4.625028
2 890 -0.072319
2 891 -9.019454
2 892 -4.656358
2 893 -0.071261
2 894 -9.014985
2 895 -4.625028
2 896 -0.072319
2 897 -9.019454
2 898 -4.656358
2 899 -0.071261
2 900 -9.014985
2 901 -4.625028
2 902 -0.072319
2 903 -9.019454
2 904 -4.656358
2 905 -0.071261
2 906 -9.014985
2 907 -4.625028
2 908 -0.072319
2 909 -9.019454
2 910 -4.656358
2 911 -0.071261
2 912 -9.014985
2 913 -4.625028
2 914 -0.072319
2 915 -9.019454
2 916 -4.656358
2 917 -0.071261
2 918 -9.014985
2 919 -4.625028
2 920 -0.072319
2 921 -9.019454
2 922 -4.656358
2 923 -0.071261
2 924 -9.014985
2 925 -4.625028
2 926 -0.072319
2 927 -9.019454
2 928 -4.656358
2 929 -0.071261
2 930 -9.014985
2 931 -4.625028
2 932 -0.072319
2 933 -9.019454
2 934 -4.656358
2 935 -0.071261
2 936 -9.014985
2 937 -4.625028
2 938 -0.072319
2 939 -9.019454
2 940 -4.656358
2 941 -0.071261
2 942 -9.014985
2 943 -4.625028
2 944 -0.072319
2 945 -9.019454
2 946 -4.656358
2 947 -0.071261
2 948 -9.014985
2 949 -4.625028
2 950 -0.072319
2 951 -9.019454
2 952 -4.656358
2 953 -0.071261
2 954 -9.014985
2 955 -4.625028
2 956 -0.072319
2 957 -9.019454
2 958 -4.656358
2 959 -0.071261
2 960 -9.014985
2 961 -4.625028
2 962 -0.072319
2 963 -9.019454
2 964 -4.656358
2 965 -0.071261
2 966 -9.014985
2 967 -4.625028
2 968 -0.072319
2 969 -9.019454
2 970 -4.656358
2 971 -0.071261
2 972 -9.014985
2 973 -4.625028
2 974 -0.072319
2 975 -9.019454
2 976 -4.656358
2 977 -0.071261
2 978 -9.014985
2 979 -4.625028
2 980 -0.072319
2 981 -9.019454
2 982 -4.656358
2 983 -0.071261
2 984 -9.014985
2 985 -4.625028
2 986 -0.072319
2 987 -9.019454
2 988 -4.656358
2 989 -0.071261
2 990 -9.014985
2 991 -4.625028
2 992 -0.072319
2 993 -9.019454
2 994 -4.656358
2 995 -0.071261
2 996 -9.014985
2 997 -4.625028
2 998 -0.072319
2 999 -9.019454
2 1000 -4.656358
2 1001 -0.071261
2 1002 -9.014985
2 1003 -4.625028
2 1004 -0.072319
2 1005 -9.019454
2 1006 -4.656358
2 1007 -0.071261
2 1008 -9.014985
2 1009 -4.625028
2 1010 -0.072319
2 1011 -9.019454
2 1012 -4.656358
2 1013 -0.071261
2 1014 -9.014985
2 1015 -4.625028
2 1016 -0.072319
2 1017 -9.019454
2 1018 -4.656358
2 1019 -0.071261
2 1020 -9.014985
2 1021 -4.625028
2 1022 -0.072319
2 1023 -9.019454
2 1024 -4.656358
2 1025 -0.071261
2 1026 -9.014985
2 1027 -4.625028
2 1028 -0.072319
2 1029 -9.019454
2 1030 -4.656358
2 1031 -0.071261
2 1032 -9.014985
2 1033 -4.625028
2 1034 -0.072319
2 1035 -9.019454
2 1036 -4.656358
2 1037 -0.071261
2 1038 -9.014985
2 1039 -4.625028
2 1040 -0.072319
2 1041 -9.019454
2 1042 -4.656358
2 1043 -0.071261
2 1044 -9.014985
2 1045 -4.625028
2 1046 -0.072319
2 1047 -9.019454
2 1048 -4.656358
2 1049 -0.071261
2 1050 -9.014985
2 1051 -4.625028
2 1052 -0.072319
2 1053 -9.019454
2 1054 -4.656358
2 1055 -0.071261
2 1056 -9.014985
2 1057 -4.625028
2 1058 -0.072319
2 1059 -9.019454
2 1060 -4.656358
2 1061 -0.071261
2 1062 -9.014985
2 1063 -4.625028
2 1064 -0.072319
2 1065 -9.019454
2 1066 -4.656358
2 1067 -0.071261
2 1068 -9.014985
2 1069 -4.625028
2 1070 -0.072319
2 1071 -9.019454
2 1072 -4.656358
2 1073 -0.071261
2 1074 -9.014985
2 1075 -4.625028
2 1076 -0.072319
2 1077 -9.019454
2 1078 -4.656358
2 1079 -0.071261
2 1080 -9.014985
2 1081 -4.625028
2 1082 -0.072319
2 1083 -9.019454
2 1084 -4.656358
2 1085 -0.071261
2 1086 -9.014985
2 1087 -4.625028
2 1088 -0.072319
2 1089 -9.019454
2 1090 -4.656358
2 1091 -0.071261
2 1092 -9.014985
2 1093 -4.625028
2 1094 -0.072319
2 1095 -9.019454
2 1096 -4.656358
2 1097 -0.071261
2 1098 -9.014985
2 1099 -4.625028
2 1100 -0.072319
2 1101 -9.019454
2 1102 -4.656358
2 1103 -0.071261
2 1104 -9.014985
2 1105 -4.625028
2 1106 -0.072319
2 1107 -9.019454
2 1108 -4.656358
2 1109 -0.071261
2 1110 -9.014985
2 1111 -4.625028
2 1112 -0.072319
2 1113 -9.019454
2 1114 -4.656358
2 1115 -0.071261
2 1116 -9.014985
2 1117 -4.625028
2 1118 -0.072319
2 1119 -9.019454
2 1120 -4.656358
2 1121 -0.071261
2 1122 -9.014985
2 1123 -4.625028
2 1124 -0.072319
2 1125 -9.019454
2 1126 -4.656358
2 1127 -0.071261
2 1128 -9.014985
2 1129 -7.005948
2 1130 -0.072318
2 1131 -9.019452
2 1132 -7.051632
2 1133 -0.071261
2 1134 -9.014984
2 1135 -1.27992
2 1136 -0.024651
2 1137 -2.222842
2 1138 -1.017879
2 1139 -0.187652
2 1140 -2.137345
2 1141 -1.279916
2 1142 -0.024654
2 1143 -1.619496
2 1144 -1.017879
2 1145 -0.187639
2 1146 -1.530492
2 1147 -1.279916
2 1148 -0.024654
2 1149 -1.619496
2 1150 -1.017879
2 1151 -0.187639
2 1152 -1.530492
2 1153 -1.279916
2 1154 -0.024654
2 1155 -1.619496
2 1156 -1.017879
2 1157 -0.187639
2 1158 -1.530492
2 1159 -1.279916
2 1160 -0.024654
2 1161 -1.619496
2 1162 -1.017879
2 1163 -0.187639
2 1164 -1.530492
2 1165 -1.279921
2 1166 -0.024651
2 1167 -2.557181
2 1168 -1.017879
2 1169 -0.187653
2 1170 -2.474499
2 1171 -0.680388
2 1172 -0.037806
2 1173 -1.811511
2 1174 -0.680388
2 1175 -0.037806
2 1176 -1.811511
2 1177 -0.555633
2 1178 -0.025502
2 1179 -1.820442
2 1180 -0.555633
2 1181 -0.025502
2 1182 -1.820442
2 1183 -2.194892
2 1184 -0.491648
2 1185 -7.369372
2 1186 -2.988542
2 1187 -0.055252
2 1188 -7.571173
2 1189 -2.19489
2 1190 -0.491608
2 1191 -6.276553
2 1192 -2.98853
2 1193 -0.055258
2 1194 -6.478701
2 1195 -2.19489
2 1196 -0.491608
2 1197 -6.276553
2 1198 -2.98853
2 1199 -0.055258
2 1200 -6.478701
2 1201 -2.194892
2 1202 -0.491648
2 1203 -7.369372
2 1204 -2.988542
2 1205 -0.055252
2 1206 -7.571173
2 1207 -3.274228
2 1208 -0.057475
2 1209 -8.403391
2 1210 -2.378104
2 1211 -0.866012
2 1212 -7.885949
2 1213 -3.274212
2 1214 -0.057483
2 1215 -7.196126
2 1216 -2.378104
2 1217 -0.866011
2 1218 -6.677991
2 1219 -3.274212
2 1220 -0.057483
2 1221 -7.196126
2 1222 -2.378104
2 1223 -0.866011
2 1224 -6.677991
2 1225 -3.274212
2 1226 -0.057483
2 1227 -7.196126
2 1228 -2.378104
2 1229 -0.866011
2 1230 -6.677991
2 1231 -3.274212
2 1232 -0.057483
2 1233 -7.196126
2 1234 -2.378104
2 1235 -0.866011
2 1236 -6.677991
2 1237 -3.274212
2 1238 -0.057483
2 1239 -7.196126
2 1240 -2.378104
2 1241 -0.866011
2 1242 -6.677991
2 1243 -3.274212
2 1244 -0.057483
2 1245 -7.196126
2 1246 -2.378104
2 1247 -0.866011
2 1248 -6.677991
2 1249 -3.274212
2 1250 -0.057483
2 1251 -7.196126
2 1252 -2.378104
2 1253 -0.866011
2 1254 -6.677991
2 1255 -3.274212
2 1256 -0.057483
2 1257 -7.196126
2 1258 -2.378104
2 1259 -0.866011
2 1260 -6.677991
2 1261 -3.274212
2 1262 -0.057483
2 1263 -7.196126
2 1264 -2.378104
2 1265 -0.866011
2 1266 -6.677991
2 1267 -5.316996
2 1268 -0.057469
2 1269 -7.196112
2 1270 -3.913145
2 1271 -0.866012
2 1272 -6.677991
2 1296 -9.244
2 1298 -9.139
2 1299 -16.5255
2 1300 -16.6505
2 1301 -194.2496
2 1302 -197.5526
2 1393 -19.5265
2 1395 -0.026455
2 1397 -19.5575
2 1399 -0.026455
2 1402 -0.026455
2 1405 -0.026455
2 1408 -0.026455
2 1411 -0.026455
2 1414 -0.026455
2 1417 -0.026455
2 1419 -250.3055
2 1421 -0.022523
2 1423 -252.185
2 1425 -0.022523
2 1428 -0.022523
2 1431 -0.022523
2 1434 -0.022523
2 1437 -0.022523
2 1440 -0.022523
2 1443 -0.022523
2 1446 -0.022523
2 1449 -0.022523
2 1452 -0.022523
2 1455 -0.022523
2 1458 -0.022523
2 1461 -0.022523
2 1464 -0.022523
2 1467 -0.022523
2 1470 -0.022523
2 1473 -0.022523
2 1476 -0.022523
2 1479 -0.022523
2 1482 -0.022523
2 1485 -0.022523
2 1487 -74.9745
2 1488 -4.626796
2 1489 -0.072248
2 1490 -10.543483
2 1491 -75.113
2 1492 -4.657614
2 1493 -0.071227
2 1494 -10.539122
2 1495 -4.626795
2 1496 -0.072249
2 1497 -9.019198
2 1498 -4.657614
2 1499 -0.071227
2 1500 -9.014808
2 1501 -4.626795
2 1502 -0.072249
2 1503 -9.019198
2 1504 -4.657614
2 1505 -0.071227
2 1506 -9.014808
2 1507 -4.626795
2 1508 -0.072249
2 1509 -9.019198
2 1510 -4.657614
2 1511 -0.071227
2 1512 -9.014808
2 1513 -4.626795
2 1514 -0.072249
2 1515 -9.019198
2 1516 -4.657614
2 1517 -0.071227
2 1518 -9.014808
2 1519 -4.626795
2 1520 -0.072249
2 1521 -9.019198
2 1522 -4.657614
2 1523 -0.071227
2 1524 -9.014808
2 1525 -4.626795
2 1526 -0.072249
2 1527 -9.019198
2 1528 -4.657614
2 1529 -0.071227
2 1530 -9.014808
2 1531 -4.626795
2 1532 -0.072249
2 1533 -9.019198
2 1534 -4.657614
2 1535 -0.071227
2 1536 -9.014808
2 1537 -4.626795
2 1538 -0.072249
2 1539 -9.019198
2 1540 -4.657614
2 1541 -0.071227
2 1542 -9.014808
2 1543 -4.626795
2 1544 -0.072249
2 1545 -9.019198
2 1546 -4.657614
2 1547 -0.071227
2 1548 -9.014808
2 1549 -4.626795
2 1550 -0.072249
2 1551 -9.019198
2 1552 -4.657614
2 1553 -0.071227
2 1554 -9.014808
2 1555 -4.626795
2 1556 -0.072249
2 1557 -9.019198
2 1558 -4.657614
2 1559 -0.071227
2 1560 -9.014808
2 1561 -4.626795
2 1562 -0.072249
2 1563 -9.019198
2 1564 -4.657614
2 1565 -0.071227
2 1566 -9.014808
2 1567 -4.626795
2 1568 -0.072249
2 1569 -9.019198
2 1570 -4.657614
2 1571 -0.071227
2 1572 -9.014808
2 1573 -4.626795
2 1574 -0.072249
2 1575 -9.019198
2 1576 -4.657614
2 1577 -0.071227
2 1578 -9.014808
2 1579 -4.626795
2 1580 -0.072249
2 1581 -9.019198
2 1582 -4.657614
2 1583 -0.071227
2 1584 -9.014808
2 1585 -4.626795
2 1586 -0.072249
2 1587 -9.019198
2 1588 -4.657614
2 1589 -0.071227
2 1590 -9.014808
2 1591 -4.626795
2 1592 -0.072249
2 1593 -9.019198
2 1594 -4.657614
2 1595 -0.071227
2 1596 -9.014808
2 1597 -4.626795
2 1598 -0.072249
2 1599 -9.019198
2 1600 -4.657614
2 1601 -0.071227
2 1602 -9.014808
2 1603 -4.626795
2 1604 -0.072249
2 1605 -9.019198
2 1606 -4.657614
2 1607 -0.071227
2 1608 -9.014808
2 1609 -4.626795
2 1610 -0.072249
2 1611 -9.019198
2 1612 -4.657614
2 1613 -0.071227
2 1614 -9.014808
2 1615 -4.626795
2 1616 -0.072249
2 1617 -9.019198
2 1618 -4.657614
2 1619 -0.071227
2 1620 -9.014808
2 1621 -4.626795
2 1622 -0.072249
2 1623 -9.019198
2 1624 -4.657614
2 1625 -0.071227
2 1626 -9.014808
2 1627 -4.626795
2 1628 -0.072249
2 1629 -9.019198
2 1630 -4.657614
2 1631 -0.071227
2 1632 -9.014808
2 1633 -4.626795
2 1634 -0.072249
2 1635 -9.019198
2 1636 -4.657614
2 1637 -0.071227
2 1638 -9.014808
2 1639 -4.626795
2 1640 -0.072249
2 1641 -9.019198
2 1642 -4.657614
2 1643 -0.071227
2 1644 -9.014808
2 1645 -4.626795
2 1646 -0.072249
2 1647 -9.019198
2 1648 -4.657614
2 1649 -0.071227
2 1650 -9.014808
2 1651 -4.626795
2 1652 -0.072249
2 1653 -9.019198
2 1654 -4.657614
2 1655 -0.071227
2 1656 -9.014808
2 1657 -4.626795
2 1658 -0.072249
2 1659 -9.019198
2 1660 -4.657614
2 1661 -0.071227
2 1662 -9.014808
2 1663 -4.626795
2 1664 -0.072249
2 1665 -9.019198
2 1666 -4.657614
2 1667 -0.071227
2 1668 -9.014808
2 1669 -4.626795
2 1670 -0.072249
2 1671 -9.019198
2 1672 -4.657614
2 1673 -0.071227
2 1674 -9.014808
2 1675 -4.626795
2 1676 -0.072249
2 1677 -9.019198
2 1678 -4.657614
2 1679 -0.071227
2 1680 -9.014808
2 1681 -4.626795
2 1682 -0.072249
2 1683 -9.019198
2 1684 -4.657614
2 1685 -0.071227
2 1686 -9.014808
2 1687 -4.626795
2 1688 -0.072249
2 1689 -9.019198
2 1690 -4.657614
2 1691 -0.071227
2 1692 -9.014808
2 1693 -4.626795
2 1694 -0.072249
2 1695 -9.019198
2 1696 -4.657614
2 1697 -0.071227
2 1698 -9.014808
2 1699 -4.626795
2 1700 -0.072249
2 1701 -9.019198
2 1702 -4.657614
2 1703 -0.071227
2 1704 -9.014808
2 1705 -4.626795
2 1706 -0.072249
2 1707 -9.019198
2 1708 -4.657614
2 1709 -0.071227
2 1710 -9.014808
2 1711 -4.626795
2 1712 -0.072249
2 1713 -9.019198
2 1714 -4.657614
2 1715 -0.071227
2 1716 -9.014808
2 1717 -4.626795
2 1718 -0.072249
2 1719 -9.019198
2 1720 -4.657614
2 1721 -0.071227
2 1722 -9.014808
2 1723 -4.626795
2 1724 -0.072249
2 1725 -9.019198
2 1726 -4.657614
2 1727 -0.071227
2 1728 -9.014808
2 1729 -4.626795
2 1730 -0.072249
2 1731 -9.019198
2 1732 -4.657614
2 1733 -0.071227
2 1734 -9.014808
2 1735 -4.626795
2 1736 -0.072249
2 1737 -9.019198
2 1738 -4.657614
2 1739 -0.071227
2 1740 -9.014808
2 1741 -4.626795
2 1742 -0.072249
2 1743 -9.019198
2 1744 -4.657614
2 1745 -0.071227
2 1746 -9.014808
2 1747 -4.626795
2 1748 -0.072249
2 1749 -9.019198
2 1750 -4.657614
2 1751 -0.071227
2 1752 -9.014808
2 1753 -7.008518
2 1754 -0.072248
2 1755 -9.019197
2 1756 -7.053467
2 1757 -0.071227
2 1758 -9.014808
2 1759 -1.329209
2 1760 -0.017962
2 1761 -2.218409
2 1762 -1.007531
2 1763 -0.276134
2 1764 -2.054763
2 1765 -1.329204
2 1766 -0.017964
2 1767 -1.614871
2 1768 -1.00753
2 1769 -0.276132
2 1770 -1.447751
2 1771 -1.329204
2 1772 -0.017964
2 1773 -1.614871
2 1774 -1.00753
2 1775 -0.276132
2 1776 -1.447751
2 1777 -1.329204
2 1778 -0.017964
2 1779 -1.614871
2 1780 -1.00753
2 1781 -0.276132
2 1782 -1.447751
2 1783 -1.329204
2 1784 -0.017964
2 1785 -1.614871
2 1786 -1.00753
2 1787 -0.276132
2 1788 -1.447751
2 1789 -1.329209
2 1790 -0.017962
2 1791 -2.552903
2 1792 -1.007531
2 1793 -0.276134
2 1794 -2.392033
2 1795 -0.706184
2 1796 -0.124242
2 1797 -1.724905
2 1798 -0.706184
2 1799 -0.124242
2 1800 -1.724905
2 1801 -0.547491
2 1802 -0.023976
2 1803 -1.821177
2 1804 -0.547491
2 1805 -0.023976
2 1806 -1.821177
2 1807 -2.223495
2 1808 -0.758318
2 1809 -7.115979
2 1810 -2.967364
2 1811 -0.052283
2 1812 -7.56979
2 1813 -2.223495
2 1814 -0.758311
2 1815 -6.023085
2 1816 -2.96735
2 1817 -0.05229
2 1818 -6.477416
2 1819 -2.223495
2 1820 -0.758311
2 1821 -6.023085
2 1822 -2.96735
2 1823 -0.05229
2 1824 -6.477416
2 1825 -2.223495
2 1826 -0.758318
2 1827 -7.115979
2 1828 -2.967364
2 1829 -0.052283
2 1830 -7.56979
2 1831 -3.158493
2 1832 -0.074862
2 1833 -8.416659
2 1834 -2.407777
2 1835 -0.818118
2 1836 -7.925454
2 1837 -3.158475
2 1838 -0.074875
2 1839 -7.209452
2 1840 -2.407777
2 1841 -0.818119
2 1842 -6.717495
2 1843 -3.158475
2 1844 -0.074875
2 1845 -7.209452
2 1846 -2.407777
2 1847 -0.818119
2 1848 -6.717495
2 1849 -3.158475
2 1850 -0.074875
2 1851 -7.209452
2 1852 -2.407777
2 1853 -0.818119
2 1854 -6.717495
2 1855 -3.158475
2 1856 -0.074875
2 1857 -7.209452
2 1858 -2.407777
2 1859 -0.818119
2 1860 -6.717495
2 1861 -3.158475
2 1862 -0.074875
2 1863 -7.209452
2 1864 -2.407777
2 1865 -0.818119
2 1866 -6.717495
2 1867 -3.158475
2 1868 -0.074875
2 1869 -7.209452
2 1870 -2.407777
2 1871 -0.818119
2 1872 -6.717495
2 1873 -3.158475
2 1874 -0.074875
2 1875 -7.209452
2 1876 -2.407777
2 1877 -0.818119
2 1878 -6.717495
2 1879 -3.158475
2 1880 -0.074875
2 1881 -7.209452
2 1882 -2.407777
2 1883 -0.818119
2 1884 -6.717495
2 1885 -3.158475
2 1886 -0.074875
2 1887 -7.209452
2 1888 -2.407777
2 1889 -0.818119
2 1890 -6.717495
2 1891 -5.139977
2 1892 -0.07485
2 1893 -7.209437
2 1894 -3.965338
2 1895 -0.81812
2 1896 -6.717494
2 1918 -9.244
2 1920 -9.139
2 1921 -16.5255
2 1922 -16.6505
2 1923 -194.2496
2 1924 -197.5526
2 2015 -19.5265
2 2017 -0.026455
2 2019 -19.5575
2 2021 -0.026455
2 2024 -0.026455
2 2027 -0.026455
2 2030 -0.026455
2 2033 -0.026455
2 2036 -0.026455
2 2039 -0.026455
2 2041 -250.3055
2 2043 -0.022523
2 2045 -252.185
2 2047 -0.022523
2 2050 -0.022523
2 2053 -0.022523
2 2056 -0.022523
2 2059 -0.022523
2 2062 -0.022523
2 2065 -0.022523
2 2068 -0.022523
2 2071 -0.022523
2 2074 -0.022523
2 2077 -0.022523
2 2080 -0.022523
2 2083 -0.022523
2 2086 -0.022523
2 2089 -0.022523
2 2092 -0.022523
2 2095 -0.022523
2 2098 -0.022523
2 2101 -0.022523
2 2104 -0.022523
2 2107 -0.022523
2 2109 -74.9745
2 2110 -4.62918
2 2111 -0.07216
2 2112 -10.543144
2 2113 -75.113
2 2114 -4.658039
2 2115 -0.071215
2 2116 -10.539062
2 2117 -4.629178
2 2118 -0.072161
2 2119 -9.018857
2 2120 -4.658039
2 2121 -0.071215
2 2122 -9.014749
2 2123 -4.629178
2 2124 -0.072161
2 2125 -9.018857
2 2126 -4.658039
2 2127 -0.071215
2 2128 -9.014749
2 2129 -4.629178
2 2130 -0.072161
2 2131 -9.018857
2 2132 -4.658039
2 2133 -0.071215
2 2134 -9.014749
2 2135 -4.629178
2 2136 -0.072161
2 2137 -9.018857
2 2138 -4.658039
2 2139 -0.071215
2 2140 -9.014749
2 2141 -4.629178
2 2142 -0.072161
2 2143 -9.018857
2 2144 -4.658039
2 2145 -0.071215
2 2146 -9.014749
2 2147 -4.629178
2 2148 -0.072161
2 2149 -9.018857
2 2150 -4.658039
2 2151 -0.071215
2 2152 -9.014749
2 2153 -4.629178
2 2154 -0.072161
2 2155 -9.018857
2 2156 -4.658039
2 2157 -0.071215
2 2158 -9.014749
2 2159 -4.629178
2 2160 -0.072161
2 2161 -9.018857
2 2162 -4.658039
2 2163 -0.071215
2 2164 -9.014749
2 2165 -4.629178
2 2166 -0.072161
2 2167 -9.018857
2 2168 -4.658039
2 2169 -0.071215
2 2170 -9.014749
2 2171 -4.629178
2 2172 -0.072161
2 2173 -9.018857
2 2174 -4.658039
2 2175 -0.071215
2 2176 -9.014749
2 2177 -4.629178
2 2178 -0.072161
2 2179 -9.018857
2 2180 -4.658039
2 2181 -0.071215
2 2182 -9.014749
2 2183 -4.629178
2 2184 -0.072161
2 2185 -9.018857
2 2186 -4.658039
2 2187 -0.071215
2 2188 -9.014749
2 2189 -4.629178
2 2190 -0.072161
2 2191 -9.018857
2 2192 -4.658039
2 2193 -0.071215
2 2194 -9.014749
2 2195 -4.629178
2 2196 -0.072161
2 2197 -9.018857
2 2198 -4.658039
2 2199 -0.071215
2 2200 -9.014749
2 2201 -4.629178
2 2202 -0.072161
2 2203 -9.018857
2 2204 -4.658039
2 2205 -0.071215
2 2206 -9.014749
2 2207 -4.629178
2 2208 -0.072161
2 2209 -9.018857
2 2210 -4.658039
2 2211 -0.071215
2 2212 -9.014749
2 2213 -4.629178
2 2214 -0.072161
2 2215 -9.018857
2 2216 -4.658039
2 2217 -0.071215
2 2218 -9.014749
2 2219 -4.629178
2 2220 -0.072161
2 2221 -9.018857
2 2222 -4.658039
2 2223 -0.071215
2 2224 -9.014749
2 2225 -4.629178
2 2226 -0.072161
2 2227 -9.018857
2 2228 -4.658039
2 2229 -0.071215
2 2230 -9.014749
2 2231 -4.629178
2 2232 -0.072161
2 2233 -9.018857
2 2234 -4.658039
2 2235 -0.071215
2 2236 -9.014749
2 2237 -4.629178
2 2238 -0.072161
2 2239 -9.018857
2 2240 -4.658039
2 2241 -0.071215
2 2242 -9.014749
2 2243 -4.629178
2 2244 -0.072161
2 2245 -9.018857
2 2246 -4.658039
2 2247 -0.071215
2 2248 -9.014749
2 2249 -4.629178
2 2250 -0.072161
2 2251 -9.018857
2 2252 -4.658039
2 2253 -0.071215
2 2254 -9.014749
2 2255 -4.629178
2 2256 -0.072161
2 2257 -9.018857
2 2258 -4.658039
2 2259 -0.071215
2 2260 -9.014749
2 2261 -4.629178
2 2262 -0.072161
2 2263 -9.018857
2 2264 -4.658039
2 2265 -0.071215
2 2266 -9.014749
2 2267 -4.629178
2 2268 -0.072161
2 2269 -9.018857
2 2270 -4.658039
2 2271 -0.071215
2 2272 -9.014749
2 2273 -4.629178
2 2274 -0.072161
2 2275 -9.018857
2 2276 -4.658039
2 2277 -0.071215
2 2278 -9.014749
2 2279 -4.629178
2 2280 -0.072161
2 2281 -9.018857
2 2282 -4.658039
2 2283 -0.071215
2 2284 -9.014749
2 2285 -4.629178
2 2286 -0.072161
2 2287 -9.018857
2 2288 -4.658039
2 2289 -0.071215
2 2290 -9.014749
2 2291 -4.629178
2 2292 -0.072161
2 2293 -9.018857
2 2294 -4.658039
2 2295 -0.071215
2 2296 -9.014749
2 2297 -4.629178
2 2298 -0.072161
2 2299 -9.018857
2 2300 -4.658039
2 2301 -0.071215
2 2302 -9.014749
2 2303 -4.629178
2 2304 -0.072161
2 2305 -9.018857
2 2306 -4.658039
2 2307 -0.071215
2 2308 -9.014749
2 2309 -4.629178
2 2310 -0.072161
2 2311 -9.018857
2 2312 -4.658039
2 2313 -0.071215
2 2314 -9.014749
2 2315 -4.629178
2 2316 -0.072161
2 2317 -9.018857
2 2318 -4.658039
2 2319 -0.071215
2 2320 -9.014749
2 2321 -4.629178
2 2322 -0.072161
2 2323 -9.018857
2 2324 -4.658039
2 2325 -0.071215
2 2326 -9.014749
2 2327 -4.629178
2 2328 -0.072161
2 2329 -9.018857
2 2330 -4.658039
2 2331 -0.071215
2 2332 -9.014749
2 2333 -4.629178
2 2334 -0.072161
2 2335 -9.018857
2 2336 -4.658039
2 2337 -0.071215
2 2338 -9.014749
2 2339 -4.629178
2 2340 -0.072161
2 2341 -9.018857
2 2342 -4.658039
2 2343 -0.071215
2 2344 -9.014749
2 2345 -4.629178
2 2346 -0.072161
2 2347 -9.018857
2 2348 -4.658039
2 2349 -0.071215
2 2350 -9.014749
2 2351 -4.629178
2 2352 -0.072161
2 2353 -9.018857
2 2354 -4.658039
2 2355 -0.071215
2 2356 -9.014749
2 2357 -4.629178
2 2358 -0.072161
2 2359 -9.018857
2 2360 -4.658039
2 2361 -0.071215
2 2362 -9.014749
2 2363 -4.629178
2 2364 -0.072161
2 2365 -9.018857
2 2366 -4.658039
2 2367 -0.071215
2 2368 -9.014749
2 2369 -4.629178
2 2370 -0.072161
2 2371 -9.018857
2 2372 -4.658039
2 2373 -0.071215
2 2374 -9.014749
2 2375 -7.011988
2 2376 -0.07216
2 2377 -9.018855
2 2378 -7.054089
2 2379 -0.071215
2 2380 -9.014748
2 2381 -1.357032
2 2382 -0.015902
2 2383 -2.216939
2 2384 -1.002816
2 2385 -0.301594
2 2386 -2.036843
2 2387 -1.357028
2 2388 -0.015903
2 2389 -1.613134
2 2390 -1.002816
2 2391 -0.301594
2 2392 -1.429779
2 2393 -1.357028
2 2394 -0.015903
2 2395 -1.613134
2 2396 -1.002816
2 2397 -0.301594
2 2398 -1.429779
2 2399 -1.357028
2 2400 -0.015903
2 2401 -1.613134
2 2402 -1.002816
2 2403 -0.301594
2 2404 -1.429779
2 2405 -1.357028
2 2406 -0.015903
2 2407 -1.613134
2 2408 -1.002816
2 2409 -0.301594
2 2410 -1.429779
2 2411 -1.357033
2 2412 -0.015902
2 2413 -2.551646
2 2414 -1.002816
2 2415 -0.301594
2 2416 -2.374152
2 2417 -0.720909
2 2418 -0.15026
2 2419 -1.703507
2 2420 -0.720909
2 2421 -0.15026
2 2422 -1.703507
2 2423 -0.544208
2 2424 -0.023546
2 2425 -1.82141
2 2426 -0.544208
2 2427 -0.023546
2 2428 -1.82141
2 2429 -2.243686
2 2430 -0.834761
2 2431 -7.060104
2 2432 -2.917973
2 2433 -0.055022
2 2434 -7.573024
2 2435 -2.243686
2 2436 -0.83476
2 2437 -5.967195
2 2438 -2.917958
2 2439 -0.055031
2 2440 -6.480736
2 2441 -2.243686
2 2442 -0.83476
2 2443 -5.967195
2 2444 -2.917958
2 2445 -0.055031
2 2446 -6.480736
2 2447 -2.243686
2 2448 -0.834761
2 2449 -7.060104
2 2450 -2.917973
2 2451 -0.055022
2 2452 -7.573024
2 2453 -2.988189
2 2454 -0.115193
2 2455 -8.433842
2 2456 -2.448777
2 2457 -0.686873
2 2458 -8.046586
2 2459 -2.988175
2 2460 -0.115207
2 2461 -7.226675
2 2462 -2.448777
2 2463 -0.686873
2 2464 -6.838629
2 2465 -2.988175
2 2466 -0.115207
2 2467 -7.226675
2 2468 -2.448777
2 2469 -0.686873
2 2470 -6.838629
2 2471 -2.988175
2 2472 -0.115207
2 2473 -7.226675
2 2474 -2.448777
2 2475 -0.686873
2 2476 -6.838629
2 2477 -2.988175
2 2478 -0.115207
2 2479 -7.226675
2 2480 -2.448777
2 2481 -0.686873
2 2482 -6.838629
2 2483 -2.988175
2 2484 -0.115207
2 2485 -7.226675
2 2486 -2.448777
2 2487 -0.686873
2 2488 -6.838629
2 2489 -2.988175
2 2490 -0.115207
2 2491 -7.226675
2 2492 -2.448777
2 2493 -0.686873
2 2494 -6.838629
2 2495 -2.988175
2 2496 -0.115207
2 2497 -7.226675
2 2498 -2.448777
2 2499 -0.686873
2 2500 -6.838629
2 2501 -2.988175
2 2502 -0.115207
2 2503 -7.226675
2 2504 -2.448777
2 2505 -0.686873
2 2506 -6.838629
2 2507 -2.988175
2 2508 -0.115207
2 2509 -7.226675
2 2510 -2.448777
2 2511 -0.686873
2 2512 -6.838629
2 2513 -4.889177
2 2514 -0.115163
2 2515 -7.226663
2 2516 -4.03955
2 2517 -0.686875
2 2518 -6.838627
2 2540 -9.244
2 2542 -9.139
2 2544 -16.5255
2 2545 -16.6505
2 2547 -194.2496
2 2548 -197.5526
2 2639 -19.5265
2 2641 -0.026455
2 2643 -19.5575
2 2645 -0.026455
2 2648 -0.026455
2 2651 -0.026455
2 2654 -0.026455
2 2657 -0.026455
2 2660 -0.026455
2 2663 -0.026455
2 2666 -0.022523
2 2669 -0.022523
2 2672 -0.022523
2 2675 -0.022523
2 2678 -0.022523
2 2681 -0.022523
2 2684 -0.022523
2 2687 -0.022523
2 2690 -0.022523
2 2693 -0.022523
2 2696 -0.022523
2 2699 -0.022523
2 2702 -0.022523
2 2705 -0.022523
2 2708 -0.022523
2 2711 -0.022523
2 2714 -0.022523
2 2717 -0.022523
2 2720 -0.022523
2 2723 -0.022523
2 2726 -0.022523
2 2729 -0.022523
2 2731 -74.9745
2 2732 -4.635156
2 2733 -0.071947
2 2734 -10.542294
2 2735 -75.113
2 2736 -4.657921
2 2737 -0.071217
2 2738 -10.539078
2 2739 -4.635155
2 2740 -0.071947
2 2741 -9.018002
2 2742 -4.657921
2 2743 -0.071217
2 2744 -9.014764
2 2745 -4.635155
2 2746 -0.071947
2 2747 -9.018002
2 2748 -4.657921
2 2749 -0.071217
2 2750 -9.014764
2 2751 -4.635155
2 2752 -0.071947
2 2753 -9.018002
2 2754 -4.657921
2 2755 -0.071217
2 2756 -9.014764
2 2757 -4.635155
2 2758 -0.071947
2 2759 -9.018002
2 2760 -4.657921
2 2761 -0.071217
2 2762 -9.014764
2 2763 -4.635155
2 2764 -0.071947
2 2765 -9.018002
2 2766 -4.657921
2 2767 -0.071217
2 2768 -9.014764
2 2769 -4.635155
2 2770 -0.071947
2 2771 -9.018002
2 2772 -4.657921
2 2773 -0.071217
2 2774 -9.014764
2 2775 -4.635155
2 2776 -0.071947
2 2777 -9.018002
2 2778 -4.657921
2 2779 -0.071217
2 2780 -9.014764
2 2781 -4.635155
2 2782 -0.071947
2 2783 -9.018002
2 2784 -4.657921
2 2785 -0.071217
2 2786 -9.014764
2 2787 -4.635155
2 2788 -0.071947
2 2789 -9.018002
2 2790 -4.657921
2 2791 -0.071217
2 2792 -9.014764
2 2793 -4.635155
2 2794 -0.071947
2 2795 -9.018002
2 2796 -4.657921
2 2797 -0.071217
2 2798 -9.014764
2 2799 -4.635155
2 2800 -0.071947
2 2801 -9.018002
2 2802 -4.657921
2 2803 -0.071217
2 2804 -9.014764
2 2805 -4.635155
2 2806 -0.071947
2 2807 -9.018002
2 2808 -4.657921
2 2809 -0.071217
2 2810 -9.014764
2 2811 -4.635155
2 2812 -0.071947
2 2813 -9.018002
2 2814 -4.657921
2 2815 -0.071217
2 2816 -9.014764
2 2817 -4.635155
2 2818 -0.071947
2 2819 -9.018002
2 2820 -4.657921
2 2821 -0.071217
2 2822 -9.014764
2 2823 -4.635155
2 2824 -0.071947
2 2825 -9.018002
2 2826 -4.657921
2 2827 -0.071217
2 2828 -9.014764
2 2829 -4.635155
2 2830 -0.071947
2 2831 -9.018002
2 2832 -4.657921
2 2833 -0.071217
2 2834 -9.014764
2 2835 -4.635155
2 2836 -0.071947
2 2837 -9.018002
2 2838 -4.657921
2 2839 -0.071217
2 2840 -9.014764
2 2841 -4.635155
2 2842 -0.071947
2 2843 -9.018002
2 2844 -4.657921
2 2845 -0.071217
2 2846 -9.014764
2 2847 -4.635155
2 2848 -0.071947
2 2849 -9.018002
2 2850 -4.657921
2 2851 -0.071217
2 2852 -9.014764
2 2853 -4.635155
2 2854 -0.071947
2 2855 -9.018002
2 2856 -4.657921
2 2857 -0.071217
2 2858 -9.014764
2 2859 -4.635155
2 2860 -0.071947
2 2861 -9.018002
2 2862 -4.657921
2 2863 -0.071217
2 2864 -9.014764
2 2865 -4.635155
2 2866 -0.071947
2 2867 -9.018002
2 2868 -4.657921
2 2869 -0.071217
2 2870 -9.014764
2 2871 -4.635155
2 2872 -0.071947
2 2873 -9.018002
2 2874 -4.657921
2 2875 -0.071217
2 2876 -9.014764
2 2877 -4.635155
2 2878 -0.071947
2 2879 -9.018002
2 2880 -4.657921
2 2881 -0.071217
2 2882 -9.014764
2 2883 -4.635155
2 2884 -0.071947
2 2885 -9.018002
2 2886 -4.657921
2 2887 -0.071217
2 2888 -9.014764
2 2889 -4.635155
2 2890 -0.071947
2 2891 -9.018002
2 2892 -4.657921
2 2893 -0.071217
2 2894 -9.014764
2 2895 -4.635155
2 2896 -0.071947
2 2897 -9.018002
2 2898 -4.657921
2 2899 -0.071217
2 2900 -9.014764
2 2901 -4.635155
2 2902 -0.071947
2 2903 -9.018002
2 2904 -4.657921
2 2905 -0.071217
2 2906 -9.014764
2 2907 -4.635155
2 2908 -0.071947
2 2909 -9.018002
2 2910 -4.657921
2 2911 -0.071217
2 2912 -9.014764
2 2913 -4.635155
2 2914 -0.071947
2 2915 -9.018002
2 2916 -4.657921
2 2917 -0.071217
2 2918 -9.014764
2 2919 -4.635155
2 2920 -0.071947
2 2921 -9.018002
2 2922 -4.657921
2 2923 -0.071217
2 2924 -9.014764
2 2925 -4.635155
2 2926 -0.071947
2 2927 -9.018002
2 2928 -4.657921
2 2929 -0.071217
2 2930 -9.014764
2 2931 -4.635155
2 2932 -0.071947
2 2933 -9.018002
2 2934 -4.657921
2 2935 -0.071217
2 2936 -9.014764
2 2937 -4.635155
2 2938 -0.071947
2 2939 -9.018002
2 2940 -4.657921
2 2941 -0.071217
2 2942 -9.014764
2 2943 -4.635155
2 2944 -0.071947
2 2945 -9.018002
2 2946 -4.657921
2 2947 -0.071217
2 2948 -9.014764
2 2949 -4.635155
2 2950 -0.071947
2 2951 -9.018002
2 2952 -4.657921
2 2953 -0.071217
2 2954 -9.014764
2 2955 -4.635155
2 2956 -0.071947
2 2957 -9.018002
2 2958 -4.657921
2 2959 -0.071217
2 2960 -9.014764
2 2961 -4.635155
2 2962 -0.071947
2 2963 -9.018002
2 2964 -4.657921
2 2965 -0.071217
2 2966 -9.014764
2 2967 -4.635155
2 2968 -0.071947
2 2969 -9.018002
2 2970 -4.657921
2 2971 -0.071217
2 2972 -9.014764
2 2973 -4.635155
2 2974 -0.071947
2 2975 -9.018002
2 2976 -4.657921
2 2977 -0.071217
2 2978 -9.014764
2 2979 -4.635155
2 2980 -0.071947
2 2981 -9.018002
2 2982 -4.657921
2 2983 -0.071217
2 2984 -9.014764
2 2985 -4.635155
2 2986 -0.071947
2 2987 -9.018002
2 2988 -4.657921
2 2989 -0.071217
2 2990 -9.014764
2 2991 -4.635155
2 2992 -0.071947
2 2993 -9.018002
2 2994 -4.657921
2 2995 -0.071217
2 2996 -9.014764
2 2997 -7.020693
2 2998 -0.071947
2 2999 -9.018001
2 3000 -7.053916
2 3001 -0.071217
2 3002 -9.014764
2 3003 -1.389706
2 3004 -0.014292
2 3005 -2.216985
2 3006 -0.997691
2 3007 -0.319619
2 3008 -2.02972
2 3009 -1.389703
2 3010 -0.014293
2 3011 -1.612508
2 3012 -0.997691
2 3013 -0.319619
2 3014 -1.422673
2 3015 -1.389703
2 3016 -0.014293
2 3017 -1.612508
2 3018 -0.997691
2 3019 -0.319619
2 3020 -1.422673
2 3021 -1.389703
2 3022 -0.014293
2 3023 -1.612508
2 3024 -0.997691
2 3025 -0.319619
2 3026 -1.422673
2 3027 -1.389703
2 3028 -0.014293
2 3029 -1.612508
2 3030 -0.997691
2 3031 -0.319619
2 3032 -1.422673
2 3033 -1.389706
2 3034 -0.014292
2 3035 -2.552228
2 3036 -0.997691
2 3037 -0.319619
2 3038 -2.367017
2 3039 -0.737621
2 3040 -0.153274
2 3041 -1.701835
2 3042 -0.737621
2 3043 -0.153274
2 3044 -1.701835
2 3045 -0.540788
2 3046 -0.023839
2 3047 -1.821276
2 3048 -0.540788
2 3049 -0.023839
2 3050 -1.821276
2 3051 -2.510242
2 3052 -0.897365
2 3053 -7.034696
2 3054 -2.390732
2 3055 -0.169033
2 3056 -7.603989
2 3057 -2.510242
2 3058 -0.897365
2 3059 -5.941795
2 3060 -2.390732
2 3061 -0.169036
2 3062 -6.511978
2 3063 -2.510242
2 3064 -0.897365
2 3065 -5.941795
2 3066 -2.390732
2 3067 -0.169036
2 3068 -6.511978
2 3069 -2.510242
2 3070 -0.897365
2 3071 -7.034696
2 3072 -2.390732
2 3073 -0.169033
2 3074 -7.603989
2 3075 -2.437707
2 3076 -0.258845
2 3077 -8.447233
2 3078 -3.179811
2 3079 -0.125328
2 3080 -8.438928
2 3081 -2.437707
2 3082 -0.258845
2 3083 -7.239578
2 3084 -3.179803
2 3085 -0.125335
2 3086 -7.231264
2 3087 -2.437707
2 3088 -0.258845
2 3089 -7.239578
2 3090 -3.179803
2 3091 -0.125335
2 3092 -7.231264
2 3093 -2.437707
2 3094 -0.258845
2 3095 -7.239578
2 3096 -3.179803
2 3097 -0.125335
2 3098 -7.231264
2 3099 -2.437707
2 3100 -0.258845
2 3101 -7.239578
2 3102 -3.179803
2 3103 -0.125335
2 3104 -7.231264
2 3105 -2.437707
2 3106 -0.258845
2 3107 -7.239578
2 3108 -3.179803
2 3109 -0.125335
2 3110 -7.231264
2 3111 -2.437707
2 3112 -0.258845
2 3113 -7.239578
2 3114 -3.179803
2 3115 -0.125335
2 3116 -7.231264
2 3117 -2.437707
2 3118 -0.258845
2 3119 -7.239578
2 3120 -3.179803
2 3121 -0.125335
2 3122 -7.231264
2 3123 -2.437707
2 3124 -0.258845
2 3125 -7.239578
2 3126 -3.179803
2 3127 -0.125335
2 3128 -7.231264
2 3129 -2.437707
2 3130 -0.258845
2 3131 -7.239578
2 3132 -3.179803
2 3133 -0.125335
2 3134 -7.231264
2 3135 -4.03324
2 3136 -0.258845
2 3137 -7.239578
2 3138 -5.217189
2 3139 -0.125294
2 3140 -7.231251
2 3162 -9.244
2 3164 -9.139
2 3166 -16.5255
2 3167 -16.6505
2 3169 -194.2496
2 3170 -197.5526
2 3261 -19.5265
2 3263 -0.026455
2 3265 -19.5575
2 3267 -0.026455
2 3270 -0.026455
2 3273 -0.026455
2 3276 -0.026455
2 3279 -0.026455
2 3282 -0.026455
2 3285 -0.026455
2 3288 -0.022523
2 3291 -0.022523
2 3294 -0.022523
2 3297 -0.022523
2 3300 -0.022523
2 3303 -0.022523
2 3306 -0.022523
2 3309 -0.022523
2 3312 -0.022523
2 3315 -0.022523
2 3318 -0.022523
2 3321 -0.022523
2 3324 -0.022523
2 3327 -0.022523
2 3330 -0.022523
2 3333 -0.022523
2 3336 -0.022523
2 3339 -0.022523
2 3342 -0.022523
2 3345 -0.022523
2 3348 -0.022523
2 3351 -0.022523
2 3353 -74.9745
2 3354 -4.629151
2 3355 -0.072161
2 3356 -10.543148
2 3357 -75.113
2 3358 -4.657877
2 3359 -0.071221
2 3360 -10.539085
2 3361 -4.62915
2 3362 -0.072162
2 3363 -9.018861
2 3364 -4.657877
2 3365 -0.071221
2 3366 -9.014772
2 3367 -4.62915
2 3368 -0.072162
2 3369 -9.018861
2 3370 -4.657877
2 3371 -0.071221
2 3372 -9.014772
2 3373 -4.62915
2 3374 -0.072162
2 3375 -9.018861
2 3376 -4.657877
2 3377 -0.071221
2 3378 -9.014772
2 3379 -4.62915
2 3380 -0.072162
2 3381 -9.018861
2 3382 -4.657877
2 3383 -0.071221
2 3384 -9.014772
2 3385 -4.62915
2 3386 -0.072162
2 3387 -9.018861
2 3388 -4.657877
2 3389 -0.071221
2 3390 -9.014772
2 3391 -4.62915
2 3392 -0.072162
2 3393 -9.018861
2 3394 -4.657877
2 3395 -0.071221
2 3396 -9.014772
2 3397 -4.62915
2 3398 -0.072162
2 3399 -9.018861
2 3400 -4.657877
2 3401 -0.071221
2 3402 -9.014772
2 3403 -4.62915
2 3404 -0.072162
2 3405 -9.018861
2 3406 -4.657877
2 3407 -0.071221
2 3408 -9.014772
2 3409 -4.62915
2 3410 -0.072162
2 3411 -9.018861
2 3412 -4.657877
2 3413 -0.071221
2 3414 -9.014772
2 3415 -4.62915
2 3416 -0.072162
2 3417 -9.018861
2 3418 -4.657877
2 3419 -0.071221
2 3420 -9.014772
2 3421 -4.62915
2 3422 -0.072162
2 3423 -9.018861
2 3424 -4.657877
2 3425 -0.071221
2 3426 -9.014772
2 3427 -4.62915
2 3428 -0.072162
2 3429 -9.018861
2 3430 -4.657877
2 3431 -0.071221
2 3432 -9.014772
2 3433 -4.62915
2 3434 -0.072162
2 3435 -9.018861
2 3436 -4.657877
2 3437 -0.071221
2 3438 -9.014772
2 3439 -4.62915
2 3440 -0.072162
2 3441 -9.018861
2 3442 -4.657877
2 3443 -0.071221
2 3444 -9.014772
2 3445 -4.62915
2 3446 -0.072162
2 3447 -9.018861
2 3448 -4.657877
2 3449 -0.071221
2 3450 -9.014772
2 3451 -4.62915
2 3452 -0.072162
2 3453 -9.018861
2 3454 -4.657877
2 3455 -0.071221
2 3456 -9.014772
2 3457 -4.62915
2 3458 -0.072162
2 3459 -9.018861
2 3460 -4.657877
2 3461 -0.071221
2 3462 -9.014772
2 3463 -4.62915
2 3464 -0.072162
2 3465 -9.018861
2 3466 -4.657877
2 3467 -0.071221
2 3468 -9.014772
2 3469 -4.62915
2 3470 -0.072162
2 3471 -9.018861
2 3472 -4.657877
2 3473 -0.071221
2 3474 -9.014772
2 3475 -4.62915
2 3476 -0.072162
2 3477 -9.018861
2 3478 -4.657877
2 3479 -0.071221
2 3480 -9.014772
2 3481 -4.62915
2 3482 -0.072162
2 3483 -9.018861
2 3484 -4.657877
2 3485 -0.071221
2 3486 -9.014772
2 3487 -4.62915
2 3488 -0.072162
2 3489 -9.018861
2 3490 -4.657877
2 3491 -0.071221
2 3492 -9.014772
2 3493 -4.62915
2 3494 -0.072162
2 3495 -9.018861
2 3496 -4.657877
2 3497 -0.071221
2 3498 -9.014772
2 3499 -4.62915
2 3500 -0.072162
2 3501 -9.018861
2 3502 -4.657877
2 3503 -0.071221
2 3504 -9.014772
2 3505 -4.62915
2 3506 -0.072162
2 3507 -9.018861
2 3508 -4.657877
2 3509 -0.071221
2 3510 -9.014772
2 3511 -4.62915
2 3512 -0.072162
2 3513 -9.018861
2 3514 -4.657877
2 3515 -0.071221
2 3516 -9.014772
2 3517 -4.62915
2 3518 -0.072162
2 3519 -9.018861
2 3520 -4.657877
2 3521 -0.071221
2 3522 -9.014772
2 3523 -4.62915
2 3524 -0.072162
2 3525 -9.018861
2 3526 -4.657877
2 3527 -0.071221
2 3528 -9.014772
2 3529 -4.62915
2 3530 -0.072162
2 3531 -9.018861
2 3532 -4.657877
2 3533 -0.071221
2 3534 -9.014772
2 3535 -4.62915
2 3536 -0.072162
2 3537 -9.018861
2 3538 -4.657877
2 3539 -0.071221
2 3540 -9.014772
2 3541 -4.62915
2 3542 -0.072162
2 3543 -9.018861
2 3544 -4.657877
2 3545 -0.071221
2 3546 -9.014772
2 3547 -4.62915
2 3548 -0.072162
2 3549 -9.018861
2 3550 -4.657877
2 3551 -0.071221
2 3552 -9.014772
2 3553 -4.62915
2 3554 -0.072162
2 3555 -9.018861
2 3556 -4.657877
2 3557 -0.071221
2 3558 -9.014772
2 3559 -4.62915
2 3560 -0.072162
2 3561 -9.018861
2 3562 -4.657877
2 3563 -0.071221
2 3564 -9.014772
2 3565 -4.62915
2 3566 -0.072162
2 3567 -9.018861
2 3568 -4.657877
2 3569 -0.071221
2 3570 -9.014772
2 3571 -4.62915
2 3572 -0.072162
2 3573 -9.018861
2 3574 -4.657877
2 3575 -0.071221
2 3576 -9.014772
2 3577 -4.62915
2 3578 -0.072162
2 3579 -9.018861
2 3580 -4.657877
2 3581 -0.071221
2 3582 -9.014772
2 3583 -4.62915
2 3584 -0.072162
2 3585 -9.018861
2 3586 -4.657877
2 3587 -0.071221
2 3588 -9.014772
2 3589 -4.62915
2 3590 -0.072162
2 3591 -9.018861
2 3592 -4.657877
2 3593 -0.071221
2 3594 -9.014772
2 3595 -4.62915
2 3596 -0.072162
2 3597 -9.018861
2 3598 -4.657877
2 3599 -0.071221
2 3600 -9.014772
2 3601 -4.62915
2 3602 -0.072162
2 3603 -9.018861
2 3604 -4.657877
2 3605 -0.071221
2 3606 -9.014772
2 3607 -4.62915
2 3608 -0.072162
2 3609 -9.018861
2 3610 -4.657877
2 3611 -0.071221
2 3612 -9.014772
2 3613 -4.62915
2 3614 -0.072162
2 3615 -9.018861
2 3616 -4.657877
2 3617 -0.071221
2 3618 -9.014772
2 3619 -7.011947
2 3620 -0.072161
2 3621 -9.018859
2 3622 -7.053853
2 3623 -0.071221
2 3624 -9.014772
2 3625 -1.333127
2 3626 -0.018783
2 3627 -2.219815
2 3628 -1.016493
2 3629 -0.283597
2 3630 -2.048756
2 3631 -1.333122
2 3632 -0.018785
2 3633 -1.616013
2 3634 -1.016493
2 3635 -0.283597
2 3636 -1.441711
2 3637 -1.333122
2 3638 -0.018785
2 3639 -1.616013
2 3640 -1.016493
2 3641 -0.283597
2 3642 -1.441711
2 3643 -1.333122
2 3644 -0.018785
2 3645 -1.616013
2 3646 -1.016493
2 3647 -0.283597
2 3648 -1.441711
2 3649 -1.333122
2 3650 -0.018785
2 3651 -1.616013
2 3652 -1.016493
2 3653 -0.283597
2 3654 -1.441711
2 3655 -1.333127
2 3656 -0.018783
2 3657 -2.55452
2 3658 -1.016493
2 3659 -0.283598
2 3660 -2.386051
2 3661 -0.709711
2 3662 -0.143643
2 3663 -1.708026
2 3664 -0.709711
2 3665 -0.143643
2 3666 -1.708026
2 3667 -0.552408
2 3668 -0.02418
2 3669 -1.821036
2 3670 -0.552408
2 3671 -0.02418
2 3672 -1.821036
2 3673 -2.420904
2 3674 -0.800098
2 3675 -7.079327
2 3676 -2.485451
2 3677 -0.161667
2 3678 -7.605382
2 3679 -2.420904
2 3680 -0.800096
2 3681 -5.986416
2 3682 -2.485449
2 3683 -0.161671
2 3684 -6.513209
2 3685 -2.420904
2 3686 -0.800096
2 3687 -5.986416
2 3688 -2.485449
2 3689 -0.161671
2 3690 -6.513209
2 3691 -2.420904
2 3692 -0.800098
2 3693 -7.079327
2 3694 -2.485451
2 3695 -0.161667
2 3696 -7.605382
2 3697 -2.446106
2 3698 -0.246584
2 3699 -8.445952
2 3700 -3.044919
2 3701 -0.213885
2 3702 -8.452779
2 3703 -2.446106
2 3704 -0.246585
2 3705 -7.238463
2 3706 -3.04492
2 3707 -0.213885
2 3708 -7.245012
2 3709 -2.446106
2 3710 -0.246585
2 3711 -7.238463
2 3712 -3.04492
2 3713 -0.213885
2 3714 -7.245012
2 3715 -2.446106
2 3716 -0.246585
2 3717 -7.238463
2 3718 -3.04492
2 3719 -0.213885
2 3720 -7.245012
2 3721 -2.446106
2 3722 -0.246585
2 3723 -7.238463
2 3724 -3.04492
2 3725 -0.213885
2 3726 -7.245012
2 3727 -2.446106
2 3728 -0.246585
2 3729 -7.238463
2 3730 -3.04492
2 3731 -0.213885
2 3732 -7.245012
2 3733 -2.446106
2 3734 -0.246585
2 3735 -7.238463
2 3736 -3.04492
2 3737 -0.213885
2 3738 -7.245012
2 3739 -2.446106
2 3740 -0.246585
2 3741 -7.238463
2 3742 -3.04492
2 3743 -0.213885
2 3744 -7.245012
2 3745 -2.446106
2 3746 -0.246585
2 3747 -7.238463
2 3748 -3.04492
2 3749 -0.213885
2 3750 -7.245012
2 3751 -2.446106
2 3752 -0.246585
2 3753 -7.238463
2 3754 -3.04492
2 3755 -0.213885
2 3756 -7.245012
2 3757 -4.047553
2 3758 -0.246585
2 3759 -7.238463
2 3760 -5.052586
2 3761 -0.213862
2 3762 -7.245013
2 3784 -9.244
2 3786 -9.139
2 3788 -16.5255
2 3789 -16.6505
2 3791 -194.2496
2 3792 -197.5526
2 3883 -19.5265
2 3885 -0.026455
2 3887 -19.5575
2 3889 -0.026455
2 3892 -0.026455
2 3895 -0.026455
2 3898 -0.026455
2 3901 -0.026455
2 3904 -0.026455
2 3907 -0.026455
2 3910 -0.022523
2 3913 -0.022523
2 3916 -0.022523
2 3919 -0.022523
2 3922 -0.022523
2 3925 -0.022523
2 3928 -0.022523
2 3931 -0.022523
2 3934 -0.022523
2 3937 -0.022523
2 3940 -0.022523
2 3943 -0.022523
2 3946 -0.022523
2 3949 -0.022523
2 3952 -0.022523
2 3955 -0.022523
2 3958 -0.022523
2 3961 -0.022523
2 3964 -0.022523
2 3967 -0.022523
2 3970 -0.022523
2 3973 -0.022523
2 3975 -74.9745
2 3976 -4.627698
2 3977 -0.072217
2 3978 -10.543356
2 3979 -75.113
2 3980 -4.658055
2 3981 -0.071216
2 3982 -10.53906
2 3983 -4.627697
2 3984 -0.072217
2 3985 -9.01907
2 3986 -4.658055
2 3987 -0.071216
2 3988 -9.014747
2 3989 -4.627697
2 3990 -0.072217
2 3991 -9.01907
2 3992 -4.658055
2 3993 -0.071216
2 3994 -9.014747
2 3995 -4.627697
2 3996 -0.072217
2 3997 -9.01907
2 3998 -4.658055
2 3999 -0.071216
2 4000 -9.014747
2 4001 -4.627697
2 4002 -0.072217
2 4003 -9.01907
2 4004 -4.658055
2 4005 -0.071216
2 4006 -9.014747
2 4007 -4.627697
2 4008 -0.072217
2 4009 -9.01907
2 4010 -4.658055
2 4011 -0.071216
2 4012 -9.014747
2 4013 -4.627697
2 4014 -0.072217
2 4015 -9.01907
2 4016 -4.658055
2 4017 -0.071216
2 4018 -9.014747
2 4019 -4.627697
2 4020 -0.072217
2 4021 -9.01907
2 4022 -4.658055
2 4023 -0.071216
2 4024 -9.014747
2 4025 -4.627697
2 4026 -0.072217
2 4027 -9.01907
2 4028 -4.658055
2 4029 -0.071216
2 4030 -9.014747
2 4031 -4.627697
2 4032 -0.072217
2 4033 -9.01907
2 4034 -4.658055
2 4035 -0.071216
2 4036 -9.014747
2 4037 -4.627697
2 4038 -0.072217
2 4039 -9.01907
2 4040 -4.658055
2 4041 -0.071216
2 4042 -9.014747
2 4043 -4.627697
2 4044 -0.072217
2 4045 -9.01907
2 4046 -4.658055
2 4047 -0.071216
2 4048 -9.014747
2 4049 -4.627697
2 4050 -0.072217
2 4051 -9.01907
2 4052 -4.658055
2 4053 -0.071216
2 4054 -9.014747
2 4055 -4.627697
2 4056 -0.072217
2 4057 -9.01907
2 4058 -4.658055
2 4059 -0.071216
2 4060 -9.014747
2 4061 -4.627697
2 4062 -0.072217
2 4063 -9.01907
2 4064 -4.658055
2 4065 -0.071216
2 4066 -9.014747
2 4067 -4.627697
2 4068 -0.072217
2 4069 -9.01907
2 4070 -4.658055
2 4071 -0.071216
2 4072 -9.014747
2 4073 -4.627697
2 4074 -0.072217
2 4075 -9.01907
2 4076 -4.658055
2 4077 -0.071216
2 4078 -9.014747
2 4079 -4.627697
2 4080 -0.072217
2 4081 -9.01907
2 4082 -4.658055
2 4083 -0.071216
2 4084 -9.014747
2 4085 -4.627697
2 4086 -0.072217
2 4087 -9.01907
2 4088 -4.658055
2 4089 -0.071216
2 4090 -9.014747
2 4091 -4.627697
2 4092 -0.072217
2 4093 -9.01907
2 4094 -4.658055
2 4095 -0.071216
2 4096 -9.014747
2 4097 -4.627697
2 4098 -0.072217
2 4099 -9.01907
2 4100 -4.658055
2 4101 -0.071216
2 4102 -9.014747
2 4103 -4.627697
2 4104 -0.072217
2 4105 -9.01907
2 4106 -4.658055
2 4107 -0.071216
2 4108 -9.014747
2 4109 -4.627697
2 4110 -0.072217
2 4111 -9.01907
2 4112 -4.658055
2 4113 -0.071216
2 4114 -9.014747
2 4115 -4.627697
2 4116 -0.072217
2 4117 -9.01907
2 4118 -4.658055
2 4119 -0.071216
2 4120 -9.014747
2 4121 -4.627697
2 4122 -0.072217
2 4123 -9.01907
2 4124 -4.658055
2 4125 -0.071216
2 4126 -9.014747
2 4127 -4.627697
2 4128 -0.072217
2 4129 -9.01907
2 4130 -4.658055
2 4131 -0.071216
2 4132 -9.014747
2 4133 -4.627697
2 4134 -0.072217
2 4135 -9.01907
2 4136 -4.658055
2 4137 -0.071216
2 4138 -9.014747
2 4139 -4.627697
2 4140 -0.072217
2 4141 -9.01907
2 4142 -4.658055
2 4143 -0.071216
2 4144 -9.014747
2 4145 -4.627697
2 4146 -0.072217
2 4147 -9.01907
2 4148 -4.658055
2 4149 -0.071216
2 4150 -9.014747
2 4151 -4.627697
2 4152 -0.072217
2 4153 -9.01907
2 4154 -4.658055
2 4155 -0.071216
2 4156 -9.014747
2 4157 -4.627697
2 4158 -0.072217
2 4159 -9.01907
2 4160 -4.658055
2 4161 -0.071216
2 4162 -9.014747
2 4163 -4.627697
2 4164 -0.072217
2 4165 -9.01907
2 4166 -4.658055
2 4167 -0.071216
2 4168 -9.014747
2 4169 -4.627697
2 4170 -0.072217
2 4171 -9.01907
2 4172 -4.658055
2 4173 -0.071216
2 4174 -9.014747
2 4175 -4.627697
2 4176 -0.072217
2 4177 -9.01907
2 4178 -4.658055
2 4179 -0.071216
2 4180 -9.014747
2 4181 -4.627697
2 4182 -0.072217
2 4183 -9.01907
2 4184 -4.658055
2 4185 -0.071216
2 4186 -9.014747
2 4187 -4.627697
2 4188 -0.072217
2 4189 -9.01907
2 4190 -4.658055
2 4191 -0.071216
2 4192 -9.014747
2 4193 -4.627697
2 4194 -0.072217
2 4195 -9.01907
2 4196 -4.658055
2 4197 -0.071216
2 4198 -9.014747
2 4199 -4.627697
2 4200 -0.072217
2 4201 -9.01907
2 4202 -4.658055
2 4203 -0.071216
2 4204 -9.014747
2 4205 -4.627697
2 4206 -0.072217
2 4207 -9.01907
2 4208 -4.658055
2 4209 -0.071216
2 4210 -9.014747
2 4211 -4.627697
2 4212 -0.072217
2 4213 -9.01907
2 4214 -4.658055
2 4215 -0.071216
2 4216 -9.014747
2 4217 -4.627697
2 4218 -0.072217
2 4219 -9.01907
2 4220 -4.658055
2 4221 -0.071216
2 4222 -9.014747
2 4223 -4.627697
2 4224 -0.072217
2 4225 -9.01907
2 4226 -4.658055
2 4227 -0.071216
2 4228 -9.014747
2 4229 -4.627697
2 4230 -0.072217
2 4231 -9.01907
2 4232 -4.658055
2 4233 -0.071216
2 4234 -9.014747
2 4235 -4.627697
2 4236 -0.072217
2 4237 -9.01907
2 4238 -4.658055
2 4239 -0.071216
2 4240 -9.014747
2 4241 -7.009832
2 4242 -0.072217
2 4243 -9.019068
2 4244 -7.054112
2 4245 -0.071216
2 4246 -9.014747
2 4247 -1.315362
2 4248 -0.02152
2 4249 -2.221429
2 4250 -1.024943
2 4251 -0.263777
2 4252 -2.065238
2 4253 -1.315357
2 4254 -0.021523
2 4255 -1.617789
2 4256 -1.024943
2 4257 -0.263776
2 4258 -1.458171
2 4259 -1.315357
2 4260 -0.021523
2 4261 -1.617789
2 4262 -1.024943
2 4263 -0.263776
2 4264 -1.458171
2 4265 -1.315357
2 4266 -0.021523
2 4267 -1.617789
2 4268 -1.024943
2 4269 -0.263776
2 4270 -1.458171
2 4271 -1.315357
2 4272 -0.021523
2 4273 -1.617789
2 4274 -1.024943
2 4275 -0.263776
2 4276 -1.458171
2 4277 -1.315362
2 4278 -0.02152
2 4279 -2.556005
2 4280 -1.024943
2 4281 -0.263777
2 4282 -2.402549
2 4283 -0.702277
2 4284 -0.148551
2 4285 -1.704675
2 4286 -0.702277
2 4287 -0.148551
2 4288 -1.704675
2 4289 -0.557858
2 4290 -0.023841
2 4291 -1.82116
2 4292 -0.557858
2 4293 -0.023841
2 4294 -1.82116
2 4295 -2.354638
2 4296 -0.735819
2 4297 -7.132685
2 4298 -2.572939
2 4299 -0.145479
2 4300 -7.604972
2 4301 -2.354638
2 4302 -0.735818
2 4303 -6.03977
2 4304 -2.572935
2 4305 -0.145485
2 4306 -6.512736
2 4307 -2.354638
2 4308 -0.735818
2 4309 -6.03977
2 4310 -2.572935
2 4311 -0.145485
2 4312 -6.512736
2 4313 -2.354638
2 4314 -0.735819
2 4315 -7.132685
2 4316 -2.572939
2 4317 -0.145479
2 4318 -7.604972
2 4319 -2.469614
2 4320 -0.238393
2 4321 -8.444511
2 4322 -2.953238
2 4323 -0.257646
2 4324 -8.448225
2 4325 -2.469614
2 4326 -0.238395
2 4327 -7.237169
2 4328 -2.953238
2 4329 -0.257644
2 4330 -7.240385
2 4331 -2.469614
2 4332 -0.238395
2 4333 -7.237169
2 4334 -2.953238
2 4335 -0.257644
2 4336 -7.240385
2 4337 -2.469614
2 4338 -0.238395
2 4339 -7.237169
2 4340 -2.953238
2 4341 -0.257644
2 4342 -7.240385
2 4343 -2.469614
2 4344 -0.238395
2 4345 -7.237169
2 4346 -2.953238
2 4347 -0.257644
2 4348 -7.240385
2 4349 -2.469614
2 4350 -0.238395
2 4351 -7.237169
2 4352 -2.953238
2 4353 -0.257644
2 4354 -7.240385
2 4355 -2.469614
2 4356 -0.238395
2 4357 -7.237169
2 4358 -2.953238
2 4359 -0.257644
2 4360 -7.240385
2 4361 -2.469614
2 4362 -0.238395
2 4363 -7.237169
2 4364 -2.953238
2 4365 -0.257644
2 4366 -7.240385
2 4367 -2.469614
2 4368 -0.238395
2 4369 -7.237169
2 4370 -2.953238
2 4371 -0.257644
2 4372 -7.240385
2 4373 -2.469614
2 4374 -0.238395
2 4375 -7.237169
2 4376 -2.953238
2 4377 -0.257644
2 4378 -7.240385
2 4379 -4.087539
2 4380 -0.238394
2 4381 -7.237169
2 4382 -4.915832
2 4383 -0.257641
2 4384 -7.240386
2 4406 -9.244
2 4408 -9.139
2 4410 -16.5255
2 4411 -16.6505
2 4413 -194.2496
2 4414 -197.5526
2 4505 -19.5265
2 4507 -0.026455
2 4509 -19.5575
2 4511 -0.026455
2 4514 -0.026455
2 4517 -0.026455
2 4520 -0.026455
2 4523 -0.026455
2 4526 -0.026455
2 4529 -0.026455
2 4532 -0.022523
2 4535 -0.022523
2 4538 -0.022523
2 4541 -0.022523
2 4544 -0.022523
2 4547 -0.022523
2 4550 -0.022523
2 4553 -0.022523
2 4556 -0.022523
2 4559 -0.022523
2 4562 -0.022523
2 4565 -0.022523
2 4568 -0.022523
2 4571 -0.022523
2 4574 -0.022523
2 4577 -0.022523
2 4580 -0.022523
2 4583 -0.022523
2 4586 -0.022523
2 4589 -0.022523
2 4592 -0.022523
2 4595 -0.022523
2 4597 -74.9745
2 4598 -4.626808
2 4599 -0.072251
2 4600 -10.543484
2 4601 -75.113
2 4602 -4.960643
2 4603 -0.071206
2 4604 -10.236787
2 4605 -4.626806
2 4606 -0.072252
2 4607 -9.019199
2 4608 -4.960643
2 4609 -0.071206
2 4610 -8.712473
2 4611 -4.626806
2 4612 -0.072252
2 4613 -9.019199
2 4614 -4.960643
2 4615 -0.071206
2 4616 -8.712473
2 4617 -4.626806
2 4618 -0.072252
2 4619 -9.019199
2 4620 -4.960643
2 4621 -0.071206
2 4622 -8.712473
2 4623 -4.626806
2 4624 -0.072252
2 4625 -9.019199
2 4626 -4.960643
2 4627 -0.071206
2 4628 -8.712473
2 4629 -4.626806
2 4630 -0.072252
2 4631 -9.019199
2 4632 -4.960643
2 4633 -0.071206
2 4634 -8.712473
2 4635 -4.626806
2 4636 -0.072252
2 4637 -9.019199
2 4638 -4.960643
2 4639 -0.071206
2 4640 -8.712473
2 4641 -4.626806
2 4642 -0.072252
2 4643 -9.019199
2 4644 -4.960643
2 4645 -0.071206
2 4646 -8.712473
2 4647 -4.626806
2 4648 -0.072252
2 4649 -9.019199
2 4650 -4.960643
2 4651 -0.071206
2 4652 -8.712473
2 4653 -4.626806
2 4654 -0.072252
2 4655 -9.019199
2 4656 -4.960643
2 4657 -0.071206
2 4658 -8.712473
2 4659 -4.626806
2 4660 -0.072252
2 4661 -9.019199
2 4662 -4.960643
2 4663 -0.071206
2 4664 -8.712473
2 4665 -4.626806
2 4666 -0.072252
2 4667 -9.019199
2 4668 -4.960643
2 4669 -0.071206
2 4670 -8.712473
2 4671 -4.626806
2 4672 -0.072252
2 4673 -9.019199
2 4674 -4.960643
2 4675 -0.071206
2 4676 -8.712473
2 4677 -4.626806
2 4678 -0.072252
2 4679 -9.019199
2 4680 -4.960643
2 4681 -0.071206
2 4682 -8.712473
2 4683 -4.626806
2 4684 -0.072252
2 4685 -9.019199
2 4686 -4.960643
2 4687 -0.071206
2 4688 -8.712473
2 4689 -4.626806
2 4690 -0.072252
2 4691 -9.019199
2 4692 -4.960643
2 4693 -0.071206
2 4694 -8.712473
2 4695 -4.626806
2 4696 -0.072252
2 4697 -9.019199
2 4698 -4.960643
2 4699 -0.071206
2 4700 -8.712473
2 4701 -4.626806
2 4702 -0.072252
2 4703 -9.019199
2 4704 -4.960643
2 4705 -0.071206
2 4706 -8.712473
2 4707 -4.626806
2 4708 -0.072252
2 4709 -9.019199
2 4710 -4.960643
2 4711 -0.071206
2 4712 -8.712473
2 4713 -4.626806
2 4714 -0.072252
2 4715 -9.019199
2 4716 -4.960643
2 4717 -0.071206
2 4718 -8.712473
2 4719 -4.626806
2 4720 -0.072252
2 4721 -9.019199
2 4722 -4.960643
2 4723 -0.071206
2 4724 -8.712473
2 4725 -4.626806
2 4726 -0.072252
2 4727 -9.019199
2 4728 -4.960643
2 4729 -0.071206
2 4730 -8.712473
2 4731 -4.626806
2 4732 -0.072252
2 4733 -9.019199
2 4734 -4.960643
2 4735 -0.071206
2 4736 -8.712473
2 4737 -4.626806
2 4738 -0.072252
2 4739 -9.019199
2 4740 -4.960643
2 4741 -0.071206
2 4742 -8.712473
2 4743 -4.626806
2 4744 -0.072252
2 4745 -9.019199
2 4746 -4.960643
2 4747 -0.071206
2 4748 -8.712473
2 4749 -4.626806
2 4750 -0.072252
2 4751 -9.019199
2 4752 -4.960643
2 4753 -0.071206
2 4754 -8.712473
2 4755 -4.626806
2 4756 -0.072252
2 4757 -9.019199
2 4758 -4.960643
2 4759 -0.071206
2 4760 -8.712473
2 4761 -4.626806
2 4762 -0.072252
2 4763 -9.019199
2 4764 -4.960643
2 4765 -0.071206
2 4766 -8.712473
2 4767 -4.626806
2 4768 -0.072252
2 4769 -9.019199
2 4770 -4.960643
2 4771 -0.071206
2 4772 -8.712473
2 4773 -4.626806
2 4774 -0.072252
2 4775 -9.019199
2 4776 -4.960643
2 4777 -0.071206
2 4778 -8.712473
2 4779 -4.626806
2 4780 -0.072252
2 4781 -9.019199
2 4782 -4.960643
2 4783 -0.071206
2 4784 -8.712473
2 4785 -4.626806
2 4786 -0.072252
2 4787 -9.019199
2 4788 -4.960643
2 4789 -0.071206
2 4790 -8.712473
2 4791 -4.626806
2 4792 -0.072252
2 4793 -9.019199
2 4794 -4.960643
2 4795 -0.071206
2 4796 -8.712473
2 4797 -4.626806
2 4798 -0.072252
2 4799 -9.019199
2 4800 -4.960643
2 4801 -0.071206
2 4802 -8.712473
2 4803 -4.626806
2 4804 -0.072252
2 4805 -9.019199
2 4806 -4.960643
2 4807 -0.071206
2 4808 -8.712473
2 4809 -4.626806
2 4810 -0.072252
2 4811 -9.019199
2 4812 -4.960643
2 4813 -0.071206
2 4814 -8.712473
2 4815 -4.626806
2 4816 -0.072252
2 4817 -9.019199
2 4818 -4.960643
2 4819 -0.071206
2 4820 -8.712473
2 4821 -4.626806
2 4822 -0.072252
2 4823 -9.019199
2 4824 -4.960643
2 4825 -0.071206
2 4826 -8.712473
2 4827 -4.626806
2 4828 -0.072252
2 4829 -9.019199
2 4830 -4.960643
2 4831 -0.071206
2 4832 -8.712473
2 4833 -4.626806
2 4834 -0.072252
2 4835 -9.019199
2 4836 -4.960643
2 4837 -0.071206
2 4838 -8.712473
2 4839 -4.626806
2 4840 -0.072252
2 4841 -9.019199
2 4842 -4.960643
2 4843 -0.071206
2 4844 -8.712473
2 4845 -4.626806
2 4846 -0.072252
2 4847 -9.019199
2 4848 -4.960643
2 4849 -0.071206
2 4850 -8.712473
2 4851 -4.626806
2 4852 -0.072252
2 4853 -9.019199
2 4854 -4.960643
2 4855 -0.071206
2 4856 -8.712473
2 4857 -4.626806
2 4858 -0.072252
2 4859 -9.019199
2 4860 -4.960643
2 4861 -0.071206
2 4862 -8.712473
2 4863 -7.008536
2 4864 -0.072251
2 4865 -9.019197
2 4866 -7.356884
2 4867 -0.071206
2 4868 -8.712473
2 4869 -1.334642
2 4870 -0.018704
2 4871 -2.218661
2 4872 -1.016687
2 4873 -0.28492
2 4874 -2.047995
2 4875 -1.334637
2 4876 -0.018707
2 4877 -1.615119
2 4878 -1.016687
2 4879 -0.28492
2 4880 -1.440883
2 4881 -1.334637
2 4882 -0.018707
2 4883 -1.615119
2 4884 -1.016687
2 4885 -0.28492
2 4886 -1.440883
2 4887 -1.334637
2 4888 -0.018707
2 4889 -1.615119
2 4890 -1.016687
2 4891 -0.28492
2 4892 -1.440883
2 4893 -1.334637
2 4894 -0.018707
2 4895 -1.615119
2 4896 -1.016687
2 4897 -0.28492
2 4898 -1.440883
2 4899 -1.334642
2 4900 -0.018704
2 4901 -2.553157
2 4902 -1.016687
2 4903 -0.28492
2 4904 -2.385342
2 4905 -0.710982
2 4906 -0.155878
2 4907 -1.700922
2 4908 -0.710982
2 4909 -0.155878
2 4910 -1.700922
2 4911 -0.552634
2 4912 -0.023468
2 4913 -1.821377
2 4914 -0.552634
2 4915 -0.023468
2 4916 -1.821377
2 4917 -2.309566
2 4918 -0.790225
2 4919 -7.088654
2 4920 -2.675483
2 4921 -0.107647
2 4922 -7.598126
2 4923 -2.309566
2 4924 -0.790226
2 4925 -5.995732
2 4926 -2.675471
2 4927 -0.107659
2 4928 -6.505926
2 4929 -2.309566
2 4930 -0.790226
2 4931 -5.995732
2 4932 -2.675471
2 4933 -0.107659
2 4934 -6.505926
2 4935 -2.309566
2 4936 -0.790225
2 4937 -7.088654
2 4938 -2.675483
2 4939 -0.107647
2 4940 -7.598126
2 4941 -2.505271
2 4942 -0.231938
2 4943 -8.443474
2 4944 -2.882271
2 4945 -0.286798
2 4946 -8.431735
2 4947 -2.505272
2 4948 -0.23194
2 4949 -7.23625
2 4950 -2.882271
2 4951 -0.286793
2 4952 -7.22384
2 4953 -2.505272
2 4954 -0.23194
2 4955 -7.23625
2 4956 -2.882271
2 4957 -0.286793
2 4958 -7.22384
2 4959 -2.505272
2 4960 -0.23194
2 4961 -7.23625
2 4962 -2.882271
2 4963 -0.286793
2 4964 -7.22384
2 4965 -2.505272
2 4966 -0.23194
2 4967 -7.23625
2 4968 -2.882271
2 4969 -0.286793
2 4970 -7.22384
2 4971 -2.505272
2 4972 -0.23194
2 4973 -7.23625
2 4974 -2.882271
2 4975 -0.286793
2 4976 -7.22384
2 4977 -2.505272
2 4978 -0.23194
2 4979 -7.23625
2 4980 -2.882271
2 4981 -0.286793
2 4982 -7.22384
2 4983 -2.505272
2 4984 -0.23194
2 4985 -7.23625
2 4986 -2.882271
2 4987 -0.286793
2 4988 -7.22384
2 4989 -2.505272
2 4990 -0.23194
2 4991 -7.23625
2 4992 -2.882271
2 4993 -0.286793
2 4994 -7.22384
2 4995 -2.505272
2 4996 -0.23194
2 4997 -7.23625
2 4998 -2.882271
2 4999 -0.286793
2 5000 -7.22384
2 5001 -4.147935
2 5002 -0.231938
2 5003 -7.236251
2 5004 -4.795778
2 5005 -0.286793
2 5006 -7.22384
2 5028 -9.244
2 5030 -9.139
2 5032 -16.5255
2 5033 -16.6505
2 5035 -194.2496
2 5036 -197.5526
2 5127 -19.5265
2 5129 -0.026455
2 5131 -19.5575
2 5133 -0.026455
2 5136 -0.026455
2 5139 -0.026455
2 5142 -0.026455
2 5145 -0.026455
2 5148 -0.026455
2 5151 -0.026455
2 5154 -0.022523
2 5157 -0.022523
2 5160 -0.022523
2 5163 -0.022523
2 5166 -0.022523
2 5169 -0.022523
2 5172 -0.022523
2 5175 -0.022523
2 5178 -0.022523
2 5181 -0.022523
2 5184 -0.022523
2 5187 -0.022523
2 5190 -0.022523
2 5193 -0.022523
2 5196 -0.022523
2 5199 -0.022523
2 5202 -0.022523
2 5205 -0.022523
2 5208 -0.022523
2 5211 -0.022523
2 5214 -0.022523
2 5217 -0.022523
2 5219 -74.9745
2 5220 -4.627819
2 5221 -0.072217
2 5222 -10.543342
2 5223 -75.113
2 5224 -4.960704
2 5225 -0.071211
2 5226 -10.236759
2 5227 -4.627818
2 5228 -0.072218
2 5229 -9.019056
2 5230 -4.960704
2 5231 -0.071211
2 5232 -8.712445
2 5233 -4.627818
2 5234 -0.072218
2 5235 -9.019056
2 5236 -4.960704
2 5237 -0.071211
2 5238 -8.712445
2 5239 -4.627818
2 5240 -0.072218
2 5241 -9.019056
2 5242 -4.960704
2 5243 -0.071211
2 5244 -8.712445
2 5245 -4.627818
2 5246 -0.072218
2 5247 -9.019056
2 5248 -4.960704
2 5249 -0.071211
2 5250 -8.712445
2 5251 -4.627818
2 5252 -0.072218
2 5253 -9.019056
2 5254 -4.960704
2 5255 -0.071211
2 5256 -8.712445
2 5257 -4.627818
2 5258 -0.072218
2 5259 -9.019056
2 5260 -4.960704
2 5261 -0.071211
2 5262 -8.712445
2 5263 -4.627818
2 5264 -0.072218
2 5265 -9.019056
2 5266 -4.960704
2 5267 -0.071211
2 5268 -8.712445
2 5269 -4.627818
2 5270 -0.072218
2 5271 -9.019056
2 5272 -4.960704
2 5273 -0.071211
2 5274 -8.712445
2 5275 -4.627818
2 5276 -0.072218
2 5277 -9.019056
2 5278 -4.960704
2 5279 -0.071211
2 5280 -8.712445
2 5281 -4.627818
2 5282 -0.072218
2 5283 -9.019056
2 5284 -4.960704
2 5285 -0.071211
2 5286 -8.712445
2 5287 -4.627818
2 5288 -0.072218
2 5289 -9.019056
2 5290 -4.960704
2 5291 -0.071211
2 5292 -8.712445
2 5293 -4.627818
2 5294 -0.072218
2 5295 -9.019056
2 5296 -4.960704
2 5297 -0.071211
2 5298 -8.712445
2 5299 -4.627818
2 5300 -0.072218
2 5301 -9.019056
2 5302 -4.960704
2 5303 -0.071211
2 5304 -8.712445
2 5305 -4.627818
2 5306 -0.072218
2 5307 -9.019056
2 5308 -4.960704
2 5309 -0.071211
2 5310 -8.712445
2 5311 -4.627818
2 5312 -0.072218
2 5313 -9.019056
2 5314 -4.960704
2 5315 -0.071211
2 5316 -8.712445
2 5317 -4.627818
2 5318 -0.072218
2 5319 -9.019056
2 5320 -4.960704
2 5321 -0.071211
2 5322 -8.712445
2 5323 -4.627818
2 5324 -0.072218
2 5325 -9.019056
2 5326 -4.960704
2 5327 -0.071211
2 5328 -8.712445
2 5329 -4.627818
2 5330 -0.072218
2 5331 -9.019056
2 5332 -4.960704
2 5333 -0.071211
2 5334 -8.712445
2 5335 -4.627818
2 5336 -0.072218
2 5337 -9.019056
2 5338 -4.960704
2 5339 -0.071211
2 5340 -8.712445
2 5341 -4.627818
2 5342 -0.072218
2 5343 -9.019056
2 5344 -4.960704
2 5345 -0.071211
2 5346 -8.712445
2 5347 -4.627818
2 5348 -0.072218
2 5349 -9.019056
2 5350 -4.960704
2 5351 -0.071211
2 5352 -8.712445
2 5353 -4.627818
2 5354 -0.072218
2 5355 -9.019056
2 5356 -4.960704
2 5357 -0.071211
2 5358 -8.712445
2 5359 -4.627818
2 5360 -0.072218
2 5361 -9.019056
2 5362 -4.960704
2 5363 -0.071211
2 5364 -8.712445
2 5365 -4.627818
2 5366 -0.072218
2 5367 -9.019056
2 5368 -4.960704
2 5369 -0.071211
2 5370 -8.712445
2 5371 -4.627818
2 5372 -0.072218
2 5373 -9.019056
2 5374 -4.960704
2 5375 -0.071211
2 5376 -8.712445
2 5377 -4.627818
2 5378 -0.072218
2 5379 -9.019056
2 5380 -4.960704
2 5381 -0.071211
2 5382 -8.712445
2 5383 -4.627818
2 5384 -0.072218
2 5385 -9.019056
2 5386 -4.960704
2 5387 -0.071211
2 5388 -8.712445
2 5389 -4.627818
2 5390 -0.072218
2 5391 -9.019056
2 5392 -4.960704
2 5393 -0.071211
2 5394 -8.712445
2 5395 -4.627818
2 5396 -0.072218
2 5397 -9.019056
2 5398 -4.960704
2 5399 -0.071211
2 5400 -8.712445
2 5401 -4.627818
2 5402 -0.072218
2 5403 -9.019056
2 5404 -4.960704
2 5405 -0.071211
2 5406 -8.712445
2 5407 -4.627818
2 5408 -0.072218
2 5409 -9.019056
2 5410 -4.960704
2 5411 -0.071211
2 5412 -8.712445
2 5413 -4.627818
2 5414 -0.072218
2 5415 -9.019056
2 5416 -4.960704
2 5417 -0.071211
2 5418 -8.712445
2 5419 -4.627818
2 5420 -0.072218
2 5421 -9.019056
2 5422 -4.960704
2 5423 -0.071211
2 5424 -8.712445
2 5425 -4.627818
2 5426 -0.072218
2 5427 -9.019056
2 5428 -4.960704
2 5429 -0.071211
2 5430 -8.712445
2 5431 -4.627818
2 5432 -0.072218
2 5433 -9.019056
2 5434 -4.960704
2 5435 -0.071211
2 5436 -8.712445
2 5437 -4.627818
2 5438 -0.072218
2 5439 -9.019056
2 5440 -4.960704
2 5441 -0.071211
2 5442 -8.712445
2 5443 -4.627818
2 5444 -0.072218
2 5445 -9.019056
2 5446 -4.960704
2 5447 -0.071211
2 5448 -8.712445
2 5449 -4.627818
2 5450 -0.072218
2 5451 -9.019056
2 5452 -4.960704
2 5453 -0.071211
2 5454 -8.712445
2 5455 -4.627818
2 5456 -0.072218
2 5457 -9.019056
2 5458 -4.960704
2 5459 -0.071211
2 5460 -8.712445
2 5461 -4.627818
2 5462 -0.072218
2 5463 -9.019056
2 5464 -4.960704
2 5465 -0.071211
2 5466 -8.712445
2 5467 -4.627818
2 5468 -0.072218
2 5469 -9.019056
2 5470 -4.960704
2 5471 -0.071211
2 5472 -8.712445
2 5473 -4.627818
2 5474 -0.072218
2 5475 -9.019056
2 5476 -4.960704
2 5477 -0.071211
2 5478 -8.712445
2 5479 -4.627818
2 5480 -0.072218
2 5481 -9.019056
2 5482 -4.960704
2 5483 -0.071211
2 5484 -8.712445
2 5485 -7.010009
2 5486 -0.072217
2 5487 -9.019054
2 5488 -7.357039
2 5489 -0.071211
2 5490 -8.712445
2 5491 -1.358448
2 5492 -0.016218
2 5493 -2.21648
2 5494 -1.006766
2 5495 -0.303015
2 5496 -2.036206
2 5497 -1.358444
2 5498 -0.01622
2 5499 -1.61282
2 5500 -1.006766
2 5501 -0.303015
2 5502 -1.429072
2 5503 -1.358444
2 5504 -0.01622
2 5505 -1.61282
2 5506 -1.006766
2 5507 -0.303015
2 5508 -1.429072
2 5509 -1.358444
2 5510 -0.01622
2 5511 -1.61282
2 5512 -1.006766
2 5513 -0.303015
2 5514 -1.429072
2 5515 -1.358444
2 5516 -0.01622
2 5517 -1.61282
2 5518 -1.006766
2 5519 -0.303015
2 5520 -1.429072
2 5521 -1.358448
2 5522 -0.016218
2 5523 -2.551069
2 5524 -1.006766
2 5525 -0.303015
2 5526 -2.373572
2 5527 -0.722186
2 5528 -0.158436
2 5529 -1.700053
2 5530 -0.722186
2 5531 -0.158436
2 5532 -1.700053
2 5533 -0.546486
2 5534 -0.023361
2 5535 -1.821483
2 5536 -0.546486
2 5537 -0.023361
2 5538 -1.821483
2 5539 -2.27558
2 5540 -0.839364
2 5541 -7.056985
2 5542 -2.779375
2 5543 -0.076581
2 5544 -7.586942
2 5545 -2.27558
2 5546 -0.839365
2 5547 -5.964063
2 5548 -2.779359
2 5549 -0.076593
2 5550 -6.494753
2 5551 -2.27558
2 5552 -0.839365
2 5553 -5.964063
2 5554 -2.779359
2 5555 -0.076593
2 5556 -6.494753
2 5557 -2.27558
2 5558 -0.839364
2 5559 -7.056985
2 5560 -2.779375
2 5561 -0.076581
2 5562 -7.586942
2 5563 -2.550236
2 5564 -0.225249
2 5565 -8.442918
2 5566 -2.815046
2 5567 -0.376356
2 5568 -8.349122
2 5569 -2.550237
2 5570 -0.22525
2 5571 -7.235786
2 5572 -2.815046
2 5573 -0.37635
2 5574 -7.141184
2 5575 -2.550237
2 5576 -0.22525
2 5577 -7.235786
2 5578 -2.815046
2 5579 -0.37635
2 5580 -7.141184
2 5581 -2.550237
2 5582 -0.22525
2 5583 -7.235786
2 5584 -2.815046
2 5585 -0.37635
2 5586 -7.141184
2 5587 -2.550237
2 5588 -0.22525
2 5589 -7.235786
2 5590 -2.815046
2 5591 -0.37635
2 5592 -7.141184
2 5593 -2.550237
2 5594 -0.22525
2 5595 -7.235786
2 5596 -2.815046
2 5597 -0.37635
2 5598 -7.141184
2 5599 -2.550237
2 5600 -0.22525
2 5601 -7.235786
2 5602 -2.815046
2 5603 -0.37635
2 5604 -7.141184
2 5605 -2.550237
2 5606 -0.22525
2 5607 -7.235786
2 5608 -2.815046
2 5609 -0.37635
2 5610 -7.141184
2 5611 -2.550237
2 5612 -0.22525
2 5613 -7.235786
2 5614 -2.815046
2 5615 -0.37635
2 5616 -7.141184
2 5617 -2.550237
2 5618 -0.22525
2 5619 -7.235786
2 5620 -2.815046
2 5621 -0.37635
2 5622 -7.141184
2 5623 -4.223194
2 5624 -0.225246
2 5625 -7.235787
2 5626 -4.677918
2 5627 -0.376351
2 5628 -7.141183
2 5650 -9.244
2 5652 -9.139
2 5653 -16.5255
2 5654 -16.6505
2 5655 -194.2496
2 5656 -197.5526
2 5747 -19.5265
2 5749 -0.026455
2 5751 -19.5575
2 5753 -0.026455
2 5756 -0.026455
2 5759 -0.026455
2 5762 -0.026455
2 5765 -0.026455
2 5768 -0.026455
2 5771 -0.026455
2 5774 -0.022523
2 5777 -0.022523
2 5780 -0.022523
2 5783 -0.022523
2 5786 -0.022523
2 5789 -0.022523
2 5792 -0.022523
2 5795 -0.022523
2 5798 -0.022523
2 5801 -0.022523
2 5804 -0.022523
2 5807 -0.022523
2 5810 -0.022523
2 5813 -0.022523
2 5816 -0.022523
2 5819 -0.022523
2 5822 -0.022523
2 5825 -0.022523
2 5828 -0.022523
2 5831 -0.022523
2 5834 -0.022523
2 5837 -0.022523
2 5839 -74.9745
2 5840 -4.629566
2 5841 -0.07215
2 5842 -10.543091
2 5843 -75.113
2 5844 -4.658342
2 5845 -0.071207
2 5846 -10.539019
2 5847 -4.629564
2 5848 -0.07215
2 5849 -9.018804
2 5850 -4.658342
2 5851 -0.071207
2 5852 -9.014706
2 5853 -4.629564
2 5854 -0.07215
2 5855 -9.018804
2 5856 -4.658342
2 5857 -0.071207
2 5858 -9.014706
2 5859 -4.629564
2 5860 -0.07215
2 5861 -9.018804
2 5862 -4.658342
2 5863 -0.071207
2 5864 -9.014706
2 5865 -4.629564
2 5866 -0.07215
2 5867 -9.018804
2 5868 -4.658342
2 5869 -0.071207
2 5870 -9.014706
2 5871 -4.629564
2 5872 -0.07215
2 5873 -9.018804
2 5874 -4.658342
2 5875 -0.071207
2 5876 -9.014706
2 5877 -4.629564
2 5878 -0.07215
2 5879 -9.018804
2 5880 -4.658342
2 5881 -0.071207
2 5882 -9.014706
2 5883 -4.629564
2 5884 -0.07215
2 5885 -9.018804
2 5886 -4.658342
2 5887 -0.071207
2 5888 -9.014706
2 5889 -4.629564
2 5890 -0.07215
2 5891 -9.018804
2 5892 -4.658342
2 5893 -0.071207
2 5894 -9.014706
2 5895 -4.629564
2 5896 -0.07215
2 5897 -9.018804
2 5898 -4.658342
2 5899 -0.071207
2 5900 -9.014706
2 5901 -4.629564
2 5902 -0.07215
2 5903 -9.018804
2 5904 -4.658342
2 5905 -0.071207
2 5906 -9.014706
2 5907 -4.629564
2 5908 -0.07215
2 5909 -9.018804
2 5910 -4.658342
2 5911 -0.071207
2 5912 -9.014706
2 5913 -4.629564
2 5914 -0.07215
2 5915 -9.018804
2 5916 -4.658342
2 5917 -0.071207
2 5918 -9.014706
2 5919 -4.629564
2 5920 -0.07215
2 5921 -9.018804
2 5922 -4.658342
2 5923 -0.071207
2 5924 -9.014706
2 5925 -4.629564
2 5926 -0.07215
2 5927 -9.018804
2 5928 -4.658342
2 5929 -0.071207
2 5930 -9.014706
2 5931 -4.629564
2 5932 -0.07215
2 5933 -9.018804
2 5934 -4.658342
2 5935 -0.071207
2 5936 -9.014706
2 5937 -4.629564
2 5938 -0.07215
2 5939 -9.018804
2 5940 -4.658342
2 5941 -0.071207
2 5942 -9.014706
2 5943 -4.629564
2 5944 -0.07215
2 5945 -9.018804
2 5946 -4.658342
2 5947 -0.071207
2 5948 -9.014706
2 5949 -4.629564
2 5950 -0.07215
2 5951 -9.018804
2 5952 -4.658342
2 5953 -0.071207
2 5954 -9.014706
2 5955 -4.629564
2 5956 -0.07215
2 5957 -9.018804
2 5958 -4.658342
2 5959 -0.071207
2 5960 -9.014706
2 5961 -4.629564
2 5962 -0.07215
2 5963 -9.018804
2 5964 -4.658342
2 5965 -0.071207
2 5966 -9.014706
2 5967 -4.629564
2 5968 -0.07215
2 5969 -9.018804
2 5970 -4.658342
2 5971 -0.071207
2 5972 -9.014706
2 5973 -4.629564
2 5974 -0.07215
2 5975 -9.018804
2 5976 -4.658342
2 5977 -0.071207
2 5978 -9.014706
2 5979 -4.629564
2 5980 -0.07215
2 5981 -9.018804
2 5982 -4.658342
2 5983 -0.071207
2 5984 -9.014706
2 5985 -4.629564
2 5986 -0.07215
2 5987 -9.018804
2 5988 -4.658342
2 5989 -0.071207
2 5990 -9.014706
2 5991 -4.629564
2 5992 -0.07215
2 5993 -9.018804
2 5994 -4.658342
2 5995 -0.071207
2 5996 -9.014706
2 5997 -4.629564
2 5998 -0.07215
2 5999 -9.018804
2 6000 -4.658342
2 6001 -0.071207
2 6002 -9.014706
2 6003 -4.629564
2 6004 -0.07215
2 6005 -9.018804
2 6006 -4.658342
2 6007 -0.071207
2 6008 -9.014706
2 6009 -4.629564
2 6010 -0.07215
2 6011 -9.018804
2 6012 -4.658342
2 6013 -0.071207
2 6014 -9.014706
2 6015 -4.629564
2 6016 -0.07215
2 6017 -9.018804
2 6018 -4.658342
2 6019 -0.071207
2 6020 -9.014706
2 6021 -4.629564
2 6022 -0.07215
2 6023 -9.018804
2 6024 -4.658342
2 6025 -0.071207
2 6026 -9.014706
2 6027 -4.629564
2 6028 -0.07215
2 6029 -9.018804
2 6030 -4.658342
2 6031 -0.071207
2 6032 -9.014706
2 6033 -4.629564
2 6034 -0.07215
2 6035 -9.018804
2 6036 -4.658342
2 6037 -0.071207
2 6038 -9.014706
2 6039 -4.629564
2 6040 -0.07215
2 6041 -9.018804
2 6042 -4.658342
2 6043 -0.071207
2 6044 -9.014706
2 6045 -4.629564
2 6046 -0.07215
2 6047 -9.018804
2 6048 -4.658342
2 6049 -0.071207
2 6050 -9.014706
2 6051 -4.629564
2 6052 -0.07215
2 6053 -9.018804
2 6054 -4.658342
2 6055 -0.071207
2 6056 -9.014706
2 6057 -4.629564
2 6058 -0.07215
2 6059 -9.018804
2 6060 -4.658342
2 6061 -0.071207
2 6062 -9.014706
2 6063 -4.629564
2 6064 -0.07215
2 6065 -9.018804
2 6066 -4.658342
2 6067 -0.071207
2 6068 -9.014706
2 6069 -4.629564
2 6070 -0.07215
2 6071 -9.018804
2 6072 -4.658342
2 6073 -0.071207
2 6074 -9.014706
2 6075 -4.629564
2 6076 -0.07215
2 6077 -9.018804
2 6078 -4.658342
2 6079 -0.071207
2 6080 -9.014706
2 6081 -4.629564
2 6082 -0.07215
2 6083 -9.018804
2 6084 -4.658342
2 6085 -0.071207
2 6086 -9.014706
2 6087 -4.629564
2 6088 -0.07215
2 6089 -9.018804
2 6090 -4.658342
2 6091 -0.071207
2 6092 -9.014706
2 6093 -4.629564
2 6094 -0.07215
2 6095 -9.018804
2 6096 -4.658342
2 6097 -0.071207
2 6098 -9.014706
2 6099 -4.629564
2 6100 -0.07215
2 6101 -9.018804
2 6102 -4.658342
2 6103 -0.071207
2 6104 -9.014706
2 6105 -7.012551
2 6106 -0.07215
2 6107 -9.018802
2 6108 -7.054532
2 6109 -0.071207
2 6110 -9.014706
2 6111 -1.364963
2 6112 -0.015583
2 6113 -2.216534
2 6114 -1.003058
2 6115 -0.306831
2 6116 -2.034268
2 6117 -1.36496
2 6118 -0.015584
2 6119 -1.612682
2 6120 -1.003058
2 6121 -0.306831
2 6122 -1.42717
2 6123 -1.36496
2 6124 -0.015584
2 6125 -1.612682
2 6126 -1.003058
2 6127 -0.306831
2 6128 -1.42717
2 6129 -1.36496
2 6130 -0.015584
2 6131 -1.612682
2 6132 -1.003058
2 6133 -0.306831
2 6134 -1.42717
2 6135 -1.36496
2 6136 -0.015584
2 6137 -1.612682
2 6138 -1.003058
2 6139 -0.306831
2 6140 -1.42717
2 6141 -1.364964
2 6142 -0.015583
2 6143 -2.551278
2 6144 -1.003058
2 6145 -0.306831
2 6146 -2.371605
2 6147 -0.72526
2 6148 -0.157727
2 6149 -1.70023
2 6150 -0.72526
2 6151 -0.157727
2 6152 -1.70023
2 6153 -0.544256
2 6154 -0.023373
2 6155 -1.821495
2 6156 -0.544256
2 6157 -0.023373
2 6158 -1.821495
2 6159 -2.246175
2 6160 -0.848896
2 6161 -7.052778
2 6162 -2.867845
2 6163 -0.060833
2 6164 -7.57772
2 6165 -2.246175
2 6166 -0.848896
2 6167 -5.959863
2 6168 -2.867829
2 6169 -0.060843
2 6170 -6.48548
2 6171 -2.246175
2 6172 -0.848896
2 6173 -5.959863
2 6174 -2.867829
2 6175 -0.060843
2 6176 -6.48548
2 6177 -2.246175
2 6178 -0.848896
2 6179 -7.052778
2 6180 -2.867845
2 6181 -0.060833
2 6182 -7.57772
2 6183 -2.611117
2 6184 -0.213709
2 6185 -8.442907
2 6186 -2.761513
2 6187 -0.606463
2 6188 -8.120266
2 6189 -2.611118
2 6190 -0.21371
2 6191 -7.23585
2 6192 -2.761513
2 6193 -0.606466
2 6194 -6.912303
2 6195 -2.611118
2 6196 -0.21371
2 6197 -7.23585
2 6198 -2.761513
2 6199 -0.606466
2 6200 -6.912303
2 6201 -2.611118
2 6202 -0.21371
2 6203 -7.23585
2 6204 -2.761513
2 6205 -0.606466
2 6206 -6.912303
2 6207 -2.611118
2 6208 -0.21371
2 6209 -7.23585
2 6210 -2.761513
2 6211 -0.606466
2 6212 -6.912303
2 6213 -2.611118
2 6214 -0.21371
2 6215 -7.23585
2 6216 -2.761513
2 6217 -0.606466
2 6218 -6.912303
2 6219 -2.611118
2 6220 -0.21371
2 6221 -7.23585
2 6222 -2.761513
2 6223 -0.606466
2 6224 -6.912303
2 6225 -2.611118
2 6226 -0.21371
2 6227 -7.23585
2 6228 -2.761513
2 6229 -0.606466
2 6230 -6.912303
2 6231 -2.611118
2 6232 -0.21371
2 6233 -7.23585
2 6234 -2.761513
2 6235 -0.606466
2 6236 -6.912303
2 6237 -2.611118
2 6238 -0.21371
2 6239 -7.23585
2 6240 -2.761513
2 6241 -0.606466
2 6242 -6.912303
2 6243 -4.321889
2 6244 -0.213695
2 6245 -7.235851
2 6246 -4.578698
2 6247 -0.606468
2 6248 -6.9123
2 6270 -9.244
2 6272 -9.139
2 6274 -16.5255
2 6275 -16.6505
2 6277 -194.2496
2 6278 -197.5526
2 6369 -19.5265
2 6371 -0.026455
2 6373 -19.5575
2 6375 -0.026455
2 6378 -0.026455
2 6381 -0.026455
2 6384 -0.026455
2 6387 -0.026455
2 6390 -0.026455
2 6393 -0.026455
2 6395 -250.3055
2 6397 -0.022523
2 6399 -252.185
2 6401 -0.022523
2 6404 -0.022523
2 6407 -0.022523
2 6410 -0.022523
2 6413 -0.022523
2 6416 -0.022523
2 6419 -0.022523
2 6422 -0.022523
2 6425 -0.022523
2 6428 -0.022523
2 6431 -0.022523
2 6434 -0.022523
2 6437 -0.022523
2 6440 -0.022523
2 6443 -0.022523
2 6446 -0.022523
2 6449 -0.022523
2 6452 -0.022523
2 6455 -0.022523
2 6458 -0.022523
2 6461 -0.022523
2 6463 -74.9745
2 6464 -4.65064
2 6465 -0.07147
2 6466 -10.540121
2 6467 -75.113
2 6468 -4.634697
2 6469 -0.071935
2 6470 -10.542344
2 6471 -4.65064
2 6472 -0.07147
2 6473 -9.015814
2 6474 -4.634696
2 6475 -0.071935
2 6476 -9.018051
2 6477 -4.65064
2 6478 -0.07147
2 6479 -9.015814
2 6480 -4.634696
2 6481 -0.071935
2 6482 -9.018051
2 6483 -4.65064
2 6484 -0.07147
2 6485 -9.015814
2 6486 -4.634696
2 6487 -0.071935
2 6488 -9.018051
2 6489 -4.65064
2 6490 -0.07147
2 6491 -9.015814
2 6492 -4.634696
2 6493 -0.071935
2 6494 -9.018051
2 6495 -4.65064
2 6496 -0.07147
2 6497 -9.015814
2 6498 -4.634696
2 6499 -0.071935
2 6500 -9.018051
2 6501 -4.65064
2 6502 -0.07147
2 6503 -9.015814
2 6504 -4.634696
2 6505 -0.071935
2 6506 -9.018051
2 6507 -4.65064
2 6508 -0.07147
2 6509 -9.015814
2 6510 -4.634696
2 6511 -0.071935
2 6512 -9.018051
2 6513 -4.65064
2 6514 -0.07147
2 6515 -9.015814
2 6516 -4.634696
2 6517 -0.071935
2 6518 -9.018051
2 6519 -4.65064
2 6520 -0.07147
2 6521 -9.015814
2 6522 -4.634696
2 6523 -0.071935
2 6524 -9.018051
2 6525 -4.65064
2 6526 -0.07147
2 6527 -9.015814
2 6528 -4.634696
2 6529 -0.071935
2 6530 -9.018051
2 6531 -4.65064
2 6532 -0.07147
2 6533 -9.015814
2 6534 -4.634696
2 6535 -0.071935
2 6536 -9.018051
2 6537 -4.65064
2 6538 -0.07147
2 6539 -9.015814
2 6540 -4.634696
2 6541 -0.071935
2 6542 -9.018051
2 6543 -4.65064
2 6544 -0.07147
2 6545 -9.015814
2 6546 -4.634696
2 6547 -0.071935
2 6548 -9.018051
2 6549 -4.65064
2 6550 -0.07147
2 6551 -9.015814
2 6552 -4.634696
2 6553 -0.071935
2 6554 -9.018051
2 6555 -4.65064
2 6556 -0.07147
2 6557 -9.015814
2 6558 -4.634696
2 6559 -0.071935
2 6560 -9.018051
2 6561 -4.65064
2 6562 -0.07147
2 6563 -9.015814
2 6564 -4.634696
2 6565 -0.071935
2 6566 -9.018051
2 6567 -4.65064
2 6568 -0.07147
2 6569 -9.015814
2 6570 -4.634696
2 6571 -0.071935
2 6572 -9.018051
2 6573 -4.65064
2 6574 -0.07147
2 6575 -9.015814
2 6576 -4.634696
2 6577 -0.071935
2 6578 -9.018051
2 6579 -4.65064
2 6580 -0.07147
2 6581 -9.015814
2 6582 -4.634696
2 6583 -0.071935
2 6584 -9.018051
2 6585 -4.65064
2 6586 -0.07147
2 6587 -9.015814
2 6588 -4.634696
2 6589 -0.071935
2 6590 -9.018051
2 6591 -4.65064
2 6592 -0.07147
2 6593 -9.015814
2 6594 -4.634696
2 6595 -0.071935
2 6596 -9.018051
2 6597 -4.65064
2 6598 -0.07147
2 6599 -9.015814
2 6600 -4.634696
2 6601 -0.071935
2 6602 -9.018051
2 6603 -4.65064
2 6604 -0.07147
2 6605 -9.015814
2 6606 -4.634696
2 6607 -0.071935
2 6608 -9.018051
2 6609 -4.65064
2 6610 -0.07147
2 6611 -9.015814
2 6612 -4.634696
2 6613 -0.071935
2 6614 -9.018051
2 6615 -4.65064
2 6616 -0.07147
2 6617 -9.015814
2 6618 -4.634696
2 6619 -0.071935
2 6620 -9.018051
2 6621 -4.65064
2 6622 -0.07147
2 6623 -9.015814
2 6624 -4.634696
2 6625 -0.071935
2 6626 -9.018051
2 6627 -4.65064
2 6628 -0.07147
2 6629 -9.015814
2 6630 -4.634696
2 6631 -0.071935
2 6632 -9.018051
2 6633 -4.65064
2 6634 -0.07147
2 6635 -9.015814
2 6636 -4.634696
2 6637 -0.071935
2 6638 -9.018051
2 6639 -4.65064
2 6640 -0.07147
2 6641 -9.015814
2 6642 -4.634696
2 6643 -0.071935
2 6644 -9.018051
2 6645 -4.65064
2 6646 -0.07147
2 6647 -9.015814
2 6648 -4.634696
2 6649 -0.071935
2 6650 -9.018051
2 6651 -4.65064
2 6652 -0.07147
2 6653 -9.015814
2 6654 -4.634696
2 6655 -0.071935
2 6656 -9.018051
2 6657 -4.65064
2 6658 -0.07147
2 6659 -9.015814
2 6660 -4.634696
2 6661 -0.071935
2 6662 -9.018051
2 6663 -4.65064
2 6664 -0.07147
2 6665 -9.015814
2 6666 -4.634696
2 6667 -0.071935
2 6668 -9.018051
2 6669 -4.65064
2 6670 -0.07147
2 6671 -9.015814
2 6672 -4.634696
2 6673 -0.071935
2 6674 -9.018051
2 6675 -4.65064
2 6676 -0.07147
2 6677 -9.015814
2 6678 -4.634696
2 6679 -0.071935
2 6680 -9.018051
2 6681 -4.65064
2 6682 -0.07147
2 6683 -9.015814
2 6684 -4.634696
2 6685 -0.071935
2 6686 -9.018051
2 6687 -4.65064
2 6688 -0.07147
2 6689 -9.015814
2 6690 -4.634696
2 6691 -0.071935
2 6692 -9.018051
2 6693 -4.65064
2 6694 -0.07147
2 6695 -9.015814
2 6696 -4.634696
2 6697 -0.071935
2 6698 -9.018051
2 6699 -4.65064
2 6700 -0.07147
2 6701 -9.015814
2 6702 -4.634696
2 6703 -0.071935
2 6704 -9.018051
2 6705 -4.65064
2 6706 -0.07147
2 6707 -9.015814
2 6708 -4.634696
2 6709 -0.071935
2 6710 -9.018051
2 6711 -4.65064
2 6712 -0.07147
2 6713 -9.015814
2 6714 -4.634696
2 6715 -0.071935
2 6716 -9.018051
2 6717 -4.65064
2 6718 -0.07147
2 6719 -9.015814
2 6720 -4.634696
2 6721 -0.071935
2 6722 -9.018051
2 6723 -4.65064
2 6724 -0.07147
2 6725 -9.015814
2 6726 -4.634696
2 6727 -0.071935
2 6728 -9.018051
2 6729 -7.043287
2 6730 -0.07147
2 6731 -9.015814
2 6732 -7.020017
2 6733 -0.071935
2 6734 -9.01805
2 6735 -1.067823
2 6736 -0.082404
2 6737 -2.236953
2 6738 -1.167015
2 6739 -0.064193
2 6740 -2.234401
2 6741 -1.067823
2 6742 -0.082404
2 6743 -1.630685
2 6744 -1.167016
2 6745 -0.064192
2 6746 -1.630011
2 6747 -1.067823
2 6748 -0.082404
2 6749 -1.630685
2 6750 -1.167016
2 6751 -0.064192
2 6752 -1.630011
2 6753 -1.067823
2 6754 -0.082404
2 6755 -1.630685
2 6756 -1.167016
2 6757 -0.064192
2 6758 -1.630011
2 6759 -1.067823
2 6760 -0.082404
2 6761 -1.630685
2 6762 -1.167016
2 6763 -0.064192
2 6764 -1.630011
2 6765 -1.067823
2 6766 -0.082404
2 6767 -2.573612
2 6768 -1.167015
2 6769 -0.064193
2 6770 -2.569585
2 6771 -0.587764
2 6772 -0.023319
2 6773 -1.821056
2 6774 -0.587764
2 6775 -0.023319
2 6776 -1.821056
2 6777 -0.645601
2 6778 -0.13874
2 6779 -1.712476
2 6780 -0.645601
2 6781 -0.13874
2 6782 -1.712476
2 6783 -2.180137
2 6784 -0.214641
2 6785 -7.606284
2 6786 -2.758666
2 6787 -0.234946
2 6788 -7.605485
2 6789 -2.180138
2 6790 -0.214643
2 6791 -6.51396
2 6792 -2.758666
2 6793 -0.234948
2 6794 -6.512538
2 6795 -2.180138
2 6796 -0.214643
2 6797 -6.51396
2 6798 -2.758666
2 6799 -0.234948
2 6800 -6.512538
2 6801 -2.180137
2 6802 -0.214641
2 6803 -7.606284
2 6804 -2.758666
2 6805 -0.234946
2 6806 -7.605485
2 6807 -3.387759
2 6808 -0.048388
2 6809 -8.392599
2 6810 -2.335115
2 6811 -0.734483
2 6812 -8.003634
2 6813 -3.387747
2 6814 -0.048393
2 6815 -7.185167
2 6816 -2.335114
2 6817 -0.734459
2 6818 -6.795737
2 6819 -3.387747
2 6820 -0.048393
2 6821 -7.185167
2 6822 -2.335114
2 6823 -0.734459
2 6824 -6.795737
2 6825 -3.387747
2 6826 -0.048393
2 6827 -7.185167
2 6828 -2.335114
2 6829 -0.734459
2 6830 -6.795737
2 6831 -3.387747
2 6832 -0.048393
2 6833 -7.185167
2 6834 -2.335114
2 6835 -0.734459
2 6836 -6.795737
2 6837 -3.387747
2 6838 -0.048393
2 6839 -7.185167
2 6840 -2.335114
2 6841 -0.734459
2 6842 -6.795737
2 6843 -3.387747
2 6844 -0.048393
2 6845 -7.185167
2 6846 -2.335114
2 6847 -0.734459
2 6848 -6.795737
2 6849 -3.387747
2 6850 -0.048393
2 6851 -7.185167
2 6852 -2.335114
2 6853 -0.734459
2 6854 -6.795737
2 6855 -3.387747
2 6856 -0.048393
2 6857 -7.185167
2 6858 -2.335114
2 6859 -0.734459
2 6860 -6.795737
2 6861 -3.387747
2 6862 -0.048393
2 6863 -7.185167
2 6864 -2.335114
2 6865 -0.734459
2 6866 -6.795737
2 6867 -5.497479
2 6868 -0.048385
2 6869 -7.185154
2 6870 -3.843676
2 6871 -0.734459
2 6872 -6.795737
2 6894 -9.244
2 6896 -9.139
2 6897 -16.5255
2 6898 -16.6505
2 6899 -194.2496
2 6900 -197.5526
2 6991 -19.5265
2 6993 -0.026455
2 6995 -19.5575
2 6997 -0.026455
2 7000 -0.026455
2 7003 -0.026455
2 7006 -0.026455
2 7009 -0.026455
2 7012 -0.026455
2 7015 -0.026455
2 7017 -250.3055
2 7019 -0.022523
2 7021 -252.185
2 7023 -0.022523
2 7026 -0.022523
2 7029 -0.022523
2 7032 -0.022523
2 7035 -0.022523
2 7038 -0.022523
2 7041 -0.022523
2 7044 -0.022523
2 7047 -0.022523
2 7050 -0.022523
2 7053 -0.022523
2 7056 -0.022523
2 7059 -0.022523
2 7062 -0.022523
2 7065 -0.022523
2 7068 -0.022523
2 7071 -0.022523
2 7074 -0.022523
2 7077 -0.022523
2 7080 -0.022523
2 7083 -0.022523
2 7085 -74.9745
2 7086 -4.961198
2 7087 -0.071253
2 7088 -10.23653
2 7089 -75.113
2 7090 -4.624434
2 7091 -0.072341
2 7092 -10.543823
2 7093 -4.961198
2 7094 -0.071253
2 7095 -8.712215
2 7096 -4.624433
2 7097 -0.072342
2 7098 -9.019539
2 7099 -4.961198
2 7100 -0.071253
2 7101 -8.712215
2 7102 -4.624433
2 7103 -0.072342
2 7104 -9.019539
2 7105 -4.961198
2 7106 -0.071253
2 7107 -8.712215
2 7108 -4.624433
2 7109 -0.072342
2 7110 -9.019539
2 7111 -4.961198
2 7112 -0.071253
2 7113 -8.712215
2 7114 -4.624433
2 7115 -0.072342
2 7116 -9.019539
2 7117 -4.961198
2 7118 -0.071253
2 7119 -8.712215
2 7120 -4.624433
2 7121 -0.072342
2 7122 -9.019539
2 7123 -4.961198
2 7124 -0.071253
2 7125 -8.712215
2 7126 -4.624433
2 7127 -0.072342
2 7128 -9.019539
2 7129 -4.961198
2 7130 -0.071253
2 7131 -8.712215
2 7132 -4.624433
2 7133 -0.072342
2 7134 -9.019539
2 7135 -4.961198
2 7136 -0.071253
2 7137 -8.712215
2 7138 -4.624433
2 7139 -0.072342
2 7140 -9.019539
2 7141 -4.961198
2 7142 -0.071253
2 7143 -8.712215
2 7144 -4.624433
2 7145 -0.072342
2 7146 -9.019539
2 7147 -4.961198
2 7148 -0.071253
2 7149 -8.712215
2 7150 -4.624433
2 7151 -0.072342
2 7152 -9.019539
2 7153 -4.961198
2 7154 -0.071253
2 7155 -8.712215
2 7156 -4.624433
2 7157 -0.072342
2 7158 -9.019539
2 7159 -4.961198
2 7160 -0.071253
2 7161 -8.712215
2 7162 -4.624433
2 7163 -0.072342
2 7164 -9.019539
2 7165 -4.961198
2 7166 -0.071253
2 7167 -8.712215
2 7168 -4.624433
2 7169 -0.072342
2 7170 -9.019539
2 7171 -4.961198
2 7172 -0.071253
2 7173 -8.712215
2 7174 -4.624433
2 7175 -0.072342
2 7176 -9.019539
2 7177 -4.961198
2 7178 -0.071253
2 7179 -8.712215
2 7180 -4.624433
2 7181 -0.072342
2 7182 -9.019539
2 7183 -4.961198
2 7184 -0.071253
2 7185 -8.712215
2 7186 -4.624433
2 7187 -0.072342
2 7188 -9.019539
2 7189 -4.961198
2 7190 -0.071253
2 7191 -8.712215
2 7192 -4.624433
2 7193 -0.072342
2 7194 -9.019539
2 7195 -4.961198
2 7196 -0.071253
2 7197 -8.712215
2 7198 -4.624433
2 7199 -0.072342
2 7200 -9.019539
2 7201 -4.961198
2 7202 -0.071253
2 7203 -8.712215
2 7204 -4.624433
2 7205 -0.072342
2 7206 -9.019539
2 7207 -4.961198
2 7208 -0.071253
2 7209 -8.712215
2 7210 -4.624433
2 7211 -0.072342
2 7212 -9.019539
2 7213 -4.961198
2 7214 -0.071253
2 7215 -8.712215
2 7216 -4.624433
2 7217 -0.072342
2 7218 -9.019539
2 7219 -4.961198
2 7220 -0.071253
2 7221 -8.712215
2 7222 -4.624433
2 7223 -0.072342
2 7224 -9.019539
2 7225 -4.961198
2 7226 -0.071253
2 7227 -8.712215
2 7228 -4.624433
2 7229 -0.072342
2 7230 -9.019539
2 7231 -4.961198
2 7232 -0.071253
2 7233 -8.712215
2 7234 -4.624433
2 7235 -0.072342
2 7236 -9.019539
2 7237 -4.961198
2 7238 -0.071253
2 7239 -8.712215
2 7240 -4.624433
2 7241 -0.072342
2 7242 -9.019539
2 7243 -4.961198
2 7244 -0.071253
2 7245 -8.712215
2 7246 -4.624433
2 7247 -0.072342
2 7248 -9.019539
2 7249 -4.961198
2 7250 -0.071253
2 7251 -8.712215
2 7252 -4.624433
2 7253 -0.072342
2 7254 -9.019539
2 7255 -4.961198
2 7256 -0.071253
2 7257 -8.712215
2 7258 -4.624433
2 7259 -0.072342
2 7260 -9.019539
2 7261 -4.961198
2 7262 -0.071253
2 7263 -8.712215
2 7264 -4.624433
2 7265 -0.072342
2 7266 -9.019539
2 7267 -4.961198
2 7268 -0.071253
2 7269 -8.712215
2 7270 -4.624433
2 7271 -0.072342
2 7272 -9.019539
2 7273 -4.961198
2 7274 -0.071253
2 7275 -8.712215
2 7276 -4.624433
2 7277 -0.072342
2 7278 -9.019539
2 7279 -4.961198
2 7280 -0.071253
2 7281 -8.712215
2 7282 -4.624433
2 7283 -0.072342
2 7284 -9.019539
2 7285 -4.961198
2 7286 -0.071253
2 7287 -8.712215
2 7288 -4.624433
2 7289 -0.072342
2 7290 -9.019539
2 7291 -4.961198
2 7292 -0.071253
2 7293 -8.712215
2 7294 -4.624433
2 7295 -0.072342
2 7296 -9.019539
2 7297 -4.961198
2 7298 -0.071253
2 7299 -8.712215
2 7300 -4.624433
2 7301 -0.072342
2 7302 -9.019539
2 7303 -4.961198
2 7304 -0.071253
2 7305 -8.712215
2 7306 -4.624433
2 7307 -0.072342
2 7308 -9.019539
2 7309 -4.961198
2 7310 -0.071253
2 7311 -8.712215
2 7312 -4.624433
2 7313 -0.072342
2 7314 -9.019539
2 7315 -4.961198
2 7316 -0.071253
2 7317 -8.712215
2 7318 -4.624433
2 7319 -0.072342
2 7320 -9.019539
2 7321 -4.961198
2 7322 -0.071253
2 7323 -8.712215
2 7324 -4.624433
2 7325 -0.072342
2 7326 -9.019539
2 7327 -4.961198
2 7328 -0.071253
2 7329 -8.712215
2 7330 -4.624433
2 7331 -0.072342
2 7332 -9.019539
2 7333 -4.961198
2 7334 -0.071253
2 7335 -8.712215
2 7336 -4.624433
2 7337 -0.072342
2 7338 -9.019539
2 7339 -4.961198
2 7340 -0.071253
2 7341 -8.712215
2 7342 -4.624433
2 7343 -0.072342
2 7344 -9.019539
2 7345 -4.961198
2 7346 -0.071253
2 7347 -8.712215
2 7348 -4.624433
2 7349 -0.072342
2 7350 -9.019539
2 7351 -7.358279
2 7352 -0.071253
2 7353 -8.712215
2 7354 -7.005082
2 7355 -0.072341
2 7356 -9.019538
2 7357 -1.016255
2 7358 -0.293705
2 7359 -2.04203
2 7360 -1.344813
2 7361 -0.017992
2 7362 -2.21672
2 7363 -1.016255
2 7364 -0.293708
2 7365 -1.434711
2 7366 -1.344808
2 7367 -0.017994
2 7368 -1.613443
2 7369 -1.016255
2 7370 -0.293708
2 7371 -1.434711
2 7372 -1.344808
2 7373 -0.017994
2 7374 -1.613443
2 7375 -1.016255
2 7376 -0.293708
2 7377 -1.434711
2 7378 -1.344808
2 7379 -0.017994
2 7380 -1.613443
2 7381 -1.016255
2 7382 -0.293708
2 7383 -1.434711
2 7384 -1.344808
2 7385 -0.017994
2 7386 -1.613443
2 7387 -1.016255
2 7388 -0.293705
2 7389 -2.379543
2 7390 -1.344813
2 7391 -0.017991
2 7392 -2.551005
2 7393 -0.552228
2 7394 -0.023219
2 7395 -1.821498
2 7396 -0.552228
2 7397 -0.023219
2 7398 -1.821498
2 7399 -0.716129
2 7400 -0.160997
2 7401 -1.699523
2 7402 -0.716129
2 7403 -0.160997
2 7404 -1.699523
2 7405 -2.232716
2 7406 -0.19923
2 7407 -7.60362
2 7408 -2.666322
2 7409 -0.836341
2 7410 -7.052886
2 7411 -2.232717
2 7412 -0.199232
2 7413 -6.511599
2 7414 -2.666322
2 7415 -0.836346
2 7416 -5.959937
2 7417 -2.232717
2 7418 -0.199232
2 7419 -6.511599
2 7420 -2.666322
2 7421 -0.836346
2 7422 -5.959937
2 7423 -2.232716
2 7424 -0.19923
2 7425 -7.60362
2 7426 -2.666322
2 7427 -0.836341
2 7428 -7.052886
2 7429 -3.394385
2 7430 -0.054752
2 7431 -8.397026
2 7432 -2.308743
2 7433 -0.344609
2 7434 -8.385581
2 7435 -3.394374
2 7436 -0.054757
2 7437 -7.189472
2 7438 -2.308742
2 7439 -0.34458
2 7440 -7.177764
2 7441 -3.394374
2 7442 -0.054757
2 7443 -7.189472
2 7444 -2.308742
2 7445 -0.34458
2 7446 -7.177764
2 7447 -3.394374
2 7448 -0.054757
2 7449 -7.189472
2 7450 -2.308742
2 7451 -0.34458
2 7452 -7.177764
2 7453 -3.394374
2 7454 -0.054757
2 7455 -7.189472
2 7456 -2.308742
2 7457 -0.34458
2 7458 -7.177764
2 7459 -3.394374
2 7460 -0.054757
2 7461 -7.189472
2 7462 -2.308742
2 7463 -0.34458
2 7464 -7.177764
2 7465 -3.394374
2 7466 -0.054757
2 7467 -7.189472
2 7468 -2.308742
2 7469 -0.34458
2 7470 -7.177764
2 7471 -3.394374
2 7472 -0.054757
2 7473 -7.189472
2 7474 -2.308742
2 7475 -0.34458
2 7476 -7.177764
2 7477 -3.394374
2 7478 -0.054757
2 7479 -7.189472
2 7480 -2.308742
2 7481 -0.34458
2 7482 -7.177764
2 7483 -3.394374
2 7484 -0.054757
2 7485 -7.189472
2 7486 -2.308742
2 7487 -0.34458
2 7488 -7.177764
2 7489 -5.513458
2 7490 -0.054747
2 7491 -7.189458
2 7492 -3.810625
2 7493 -0.34458
2 7494 -7.177764
2 7594 1.0
3 3 919.577925
3 7 -80.203142
3 8 -80.102342
3 9 -80.197521
3 10 -79.495369
3 11 -80.190507
3 12 -77.015062
3 13 -80.183997
3 14 -71.193811
3 15 -80.178482
3 16 -65.743508
3 17 -80.175111
3 18 -63.899072
3 7596 1.0
4 1 -17463.2615
4 2 -126982.078
4 4 155905.189586
4 5 -7.212
4 6 -2609.9275
4 7 -27.7895
4 8 -27.4455
4 9 -27.7895
4 10 -27.4455
4 11 -27.7895
4 12 -27.4455
4 13 -27.7895
4 14 -27.4455
4 15 -27.7895
4 16 -27.4455
4 17 -27.7895
4 18 -27.4455
4 21 -2.7755
4 25 -11.27
4 29 -391.6925
4 32 -2.7755
4 36 -2.7755
4 40 -398.0115
4 46 -1.0705
4 48 -1.0705
4 50 -25.0715
4 51 -25.0385
4 53 -52.4615
4 54 -52.4615
4 55 -1.992309
4 56 -0.210819
4 57 -3.154496
4 58 -2.175026
4 59 -0.186909
4 60 -3.142287
4 61 -1.189574
4 62 -0.210819
4 63 -3.154496
4 64 -1.305506
4 65 -0.186923
4 66 -3.142287
4 67 -1.189574
4 68 -0.210819
4 69 -3.154496
4 70 -1.305506
4 71 -0.186923
4 72 -3.142287
4 73 -1.189574
4 74 -0.210819
4 75 -3.154496
4 76 -1.305506
4 77 -0.186923
4 78 -3.142287
4 79 -1.189574
4 80 -0.210819
4 81 -3.154496
4 82 -1.305506
4 83 -0.186923
4 84 -3.142287
4 85 -1.189574
4 86 -0.210819
4 87 -3.154496
4 88 -1.305506
4 89 -0.186923
4 90 -3.142287
4 91 -1.189574
4 92 -0.210819
4 93 -3.154496
4 94 -1.305506
4 95 -0.186923
4 96 -3.142287
4 97 -1.189574
4 98 -0.210819
4 99 -3.154496
4 100 -1.305506
4 101 -0.186923
4 102 -3.142287
4 103 -1.189574
4 104 -0.210819
4 105 -3.154496
4 106 -1.305506
4 107 -0.186923
4 108 -3.142287
4 109 -1.189574
4 110 -0.210819
4 111 -3.154496
4 112 -1.305506
4 113 -0.186923
4 114 -3.142287
4 115 -1.189574
4 116 -0.210819
4 117 -3.154496
4 118 -1.305506
4 119 -0.186923
4 120 -3.142287
4 121 -1.189574
4 122 -0.210819
4 123 -3.154496
4 124 -1.305506
4 125 -0.186923
4 126 -3.142287
4 127 -1.189574
4 128 -0.210819
4 129 -3.154496
4 130 -1.305506
4 131 -0.186923
4 132 -3.142287
4 133 -1.189574
4 134 -0.210819
4 135 -3.154496
4 136 -1.305506
4 137 -0.186923
4 138 -3.142287
4 139 -1.189574
4 140 -0.210818
4 141 -3.791494
4 142 -1.305506
4 143 -0.186921
4 144 -3.779295
4 145 -5.6965
4 146 -3.19229
4 147 -0.041748
4 148 -6.807048
4 149 -5.6545
4 150 -2.002916
4 151 -0.443488
4 152 -6.939742
4 153 -3.192283
4 154 -0.041754
4 155 -5.699893
4 156 -2.002916
4 157 -0.443501
4 158 -5.832835
4 159 -3.192283
4 160 -0.041754
4 161 -5.699893
4 162 -2.002916
4 163 -0.443501
4 164 -5.832835
4 165 -3.19229
4 166 -0.041748
4 167 -6.807048
4 168 -2.002916
4 169 -0.443488
4 170 -6.939742
4 171 -27.4455
4 172 -3.908787
4 173 -0.522685
4 174 -6.826763
4 175 -27.7895
4 176 -6.128632
4 177 -0.028785
4 178 -6.646742
4 179 -2.326742
4 180 -0.522697
4 181 -6.826763
4 182 -3.990518
4 183 -0.028786
4 184 -6.646744
4 185 -2.326742
4 186 -0.522697
4 187 -6.826763
4 188 -3.990518
4 189 -0.028786
4 190 -6.646744
4 191 -2.326742
4 192 -0.522697
4 193 -6.826763
4 194 -3.990518
4 195 -0.028786
4 196 -6.646744
4 197 -2.326742
4 198 -0.522697
4 199 -6.826763
4 200 -3.990518
4 201 -0.028786
4 202 -6.646744
4 203 -2.326742
4 204 -0.522697
4 205 -6.826763
4 206 -3.990518
4 207 -0.028786
4 208 -6.646744
4 209 -2.326742
4 210 -0.522697
4 211 -6.826763
4 212 -3.990518
4 213 -0.028786
4 214 -6.646744
4 215 -2.326742
4 216 -0.522697
4 217 -6.826763
4 218 -3.990518
4 219 -0.028786
4 220 -6.646744
4 221 -2.326742
4 222 -0.522697
4 223 -6.826763
4 224 -3.990518
4 225 -0.028786
4 226 -6.646744
4 227 -2.326742
4 228 -0.522697
4 229 -6.826763
4 230 -3.990518
4 231 -0.028786
4 232 -6.646744
4 233 -2.326742
4 234 -0.522682
4 235 -8.10995
4 236 -3.99052
4 237 -0.028785
4 238 -7.930339
4 239 -1.555
4 243 -1.5575
4 672 -1.0705
4 674 -1.0705
4 675 -25.0715
4 676 -25.0385
4 677 -52.4615
4 678 -52.4615
4 679 -1.916653
4 680 -0.23897
4 681 -3.135349
4 682 -2.458198
4 683 -0.070811
4 684 -3.10949
4 685 -1.145378
4 686 -0.238971
4 687 -3.135349
4 688 -1.538498
4 689 -0.070837
4 690 -3.109501
4 691 -1.145378
4 692 -0.238971
4 693 -3.135349
4 694 -1.538498
4 695 -0.070837
4 696 -3.109501
4 697 -1.145378
4 698 -0.238971
4 699 -3.135349
4 700 -1.538498
4 701 -0.070837
4 702 -3.109501
4 703 -1.145378
4 704 -0.238971
4 705 -3.135349
4 706 -1.538498
4 707 -0.070837
4 708 -3.109501
4 709 -1.145378
4 710 -0.238971
4 711 -3.135349
4 712 -1.538498
4 713 -0.070837
4 714 -3.109501
4 715 -1.145378
4 716 -0.238971
4 717 -3.135349
4 718 -1.538498
4 719 -0.070837
4 720 -3.109501
4 721 -1.145378
4 722 -0.238971
4 723 -3.135349
4 724 -1.538498
4 725 -0.070837
4 726 -3.109501
4 727 -1.145378
4 728 -0.238971
4 729 -3.135349
4 730 -1.538498
4 731 -0.070837
4 732 -3.109501
4 733 -1.145378
4 734 -0.238971
4 735 -3.135349
4 736 -1.538498
4 737 -0.070837
4 738 -3.109501
4 739 -1.145378
4 740 -0.238971
4 741 -3.135349
4 742 -1.538498
4 743 -0.070837
4 744 -3.109501
4 745 -1.145378
4 746 -0.238971
4 747 -3.135349
4 748 -1.538498
4 749 -0.070837
4 750 -3.109501
4 751 -1.145378
4 752 -0.238971
4 753 -3.135349
4 754 -1.538498
4 755 -0.070837
4 756 -3.109501
4 757 -1.145378
4 758 -0.238971
4 759 -3.135349
4 760 -1.538498
4 761 -0.070837
4 762 -3.109501
4 763 -1.145379
4 764 -0.238977
4 765 -3.772383
4 766 -1.538504
4 767 -0.070831
4 768 -3.746482
4 769 -5.6965
4 770 -3.149003
4 771 -0.04708
4 772 -6.811936
4 773 -5.6545
4 774 -2.004207
4 775 -0.443221
4 776 -6.939716
4 777 -3.148994
4 778 -0.047086
4 779 -5.704798
4 780 -2.004207
4 781 -0.443234
4 782 -5.832809
4 783 -3.148994
4 784 -0.047086
4 785 -5.704798
4 786 -2.004207
4 787 -0.443234
4 788 -5.832809
4 789 -3.149003
4 790 -0.04708
4 791 -6.811936
4 792 -2.004207
4 793 -0.443221
4 794 -6.939716
4 795 -27.4455
4 796 -3.95495
4 797 -0.516332
4 798 -6.826641
4 799 -27.7895
4 800 -6.011115
4 801 -0.032898
4 802 -6.652684
4 803 -2.356845
4 804 -0.51635
4 805 -6.826641
4 806 -3.911459
4 807 -0.0329
4 808 -6.652687
4 809 -2.356845
4 810 -0.51635
4 811 -6.826641
4 812 -3.911459
4 813 -0.0329
4 814 -6.652687
4 815 -2.356845
4 816 -0.51635
4 817 -6.826641
4 818 -3.911459
4 819 -0.0329
4 820 -6.652687
4 821 -2.356845
4 822 -0.51635
4 823 -6.826641
4 824 -3.911459
4 825 -0.0329
4 826 -6.652687
4 827 -2.356845
4 828 -0.51635
4 829 -6.826641
4 830 -3.911459
4 831 -0.0329
4 832 -6.652687
4 833 -2.356845
4 834 -0.51635
4 835 -6.826641
4 836 -3.911459
4 837 -0.0329
4 838 -6.652687
4 839 -2.356845
4 840 -0.51635
4 841 -6.826641
4 842 -3.911459
4 843 -0.0329
4 844 -6.652687
4 845 -2.356845
4 846 -0.51635
4 847 -6.826641
4 848 -3.911459
4 849 -0.0329
4 850 -6.652687
4 851 -2.356845
4 852 -0.51635
4 853 -6.826641
4 854 -3.911459
4 855 -0.0329
4 856 -6.652687
4 857 -2.356846
4 858 -0.516334
4 859 -8.109835
4 860 -3.911463
4 861 -0.032897
4 862 -7.936244
4 863 -1.555
4 867 -1.5575
4 1296 -1.0705
4 1298 -1.0705
4 1299 -25.0715
4 1300 -25.0385
4 1301 -52.4615
4 1302 -52.4615
4 1303 -1.887699
4 1304 -0.289912
4 1305 -3.080197
4 1306 -2.560215
4 1307 -0.0414
4 1308 -3.089533
4 1309 -1.12966
4 1310 -0.289913
4 1311 -3.080196
4 1312 -1.621492
4 1313 -0.041412
4 1314 -3.089541
4 1315 -1.12966
4 1316 -0.289913
4 1317 -3.080196
4 1318 -1.621492
4 1319 -0.041412
4 1320 -3.089541
4 1321 -1.12966
4 1322 -0.289913
4 1323 -3.080196
4 1324 -1.621492
4 1325 -0.041412
4 1326 -3.089541
4 1327 -1.12966
4 1328 -0.289913
4 1329 -3.080196
4 1330 -1.621492
4 1331 -0.041412
4 1332 -3.089541
4 1333 -1.12966
4 1334 -0.289913
4 1335 -3.080196
4 1336 -1.621492
4 1337 -0.041412
4 1338 -3.089541
4 1339 -1.12966
4 1340 -0.289913
4 1341 -3.080196
4 1342 -1.621492
4 1343 -0.041412
4 1344 -3.089541
4 1345 -1.12966
4 1346 -0.289913
4 1347 -3.080196
4 1348 -1.621492
4 1349 -0.041412
4 1350 -3.089541
4 1351 -1.12966
4 1352 -0.289913
4 1353 -3.080196
4 1354 -1.621492
4 1355 -0.041412
4 1356 -3.089541
4 1357 -1.12966
4 1358 -0.289913
4 1359 -3.080196
4 1360 -1.621492
4 1361 -0.041412
4 1362 -3.089541
4 1363 -1.12966
4 1364 -0.289913
4 1365 -3.080196
4 1366 -1.621492
4 1367 -0.041412
4 1368 -3.089541
4 1369 -1.12966
4 1370 -0.289913
4 1371 -3.080196
4 1372 -1.621492
4 1373 -0.041412
4 1374 -3.089541
4 1375 -1.12966
4 1376 -0.289913
4 1377 -3.080196
4 1378 -1.621492
4 1379 -0.041412
4 1380 -3.089541
4 1381 -1.12966
4 1382 -0.289913
4 1383 -3.080196
4 1384 -1.621492
4 1385 -0.041412
4 1386 -3.089541
4 1387 -1.12966
4 1388 -0.289918
4 1389 -3.717246
4 1390 -1.621498
4 1391 -0.041407
4 1392 -3.726515
4 1393 -5.6965
4 1394 -3.097721
4 1395 -0.054392
4 1396 -6.818089
4 1397 -5.6545
4 1398 -2.015479
4 1399 -0.440902
4 1400 -6.939678
4 1401 -3.097711
4 1402 -0.0544
4 1403 -5.71097
4 1404 -2.015478
4 1405 -0.440915
4 1406 -5.832769
4 1407 -3.097711
4 1408 -0.0544
4 1409 -5.71097
4 1410 -2.015478
4 1411 -0.440915
4 1412 -5.832769
4 1413 -3.097721
4 1414 -0.054392
4 1415 -6.818089
4 1416 -2.015479
4 1417 -0.440902
4 1418 -6.939678
4 1419 -27.4455
4 1420 -4.039185
4 1421 -0.500205
4 1422 -6.82592
4 1423 -27.7895
4 1424 -5.849745
4 1425 -0.041252
4 1426 -6.662635
4 1427 -2.4141
4 1428 -0.500237
4 1429 -6.825922
4 1430 -3.800966
4 1431 -0.041256
4 1432 -6.662639
4 1433 -2.4141
4 1434 -0.500237
4 1435 -6.825922
4 1436 -3.800966
4 1437 -0.041256
4 1438 -6.662639
4 1439 -2.4141
4 1440 -0.500237
4 1441 -6.825922
4 1442 -3.800966
4 1443 -0.041256
4 1444 -6.662639
4 1445 -2.4141
4 1446 -0.500237
4 1447 -6.825922
4 1448 -3.800966
4 1449 -0.041256
4 1450 -6.662639
4 1451 -2.4141
4 1452 -0.500237
4 1453 -6.825922
4 1454 -3.800966
4 1455 -0.041256
4 1456 -6.662639
4 1457 -2.4141
4 1458 -0.500237
4 1459 -6.825922
4 1460 -3.800966
4 1461 -0.041256
4 1462 -6.662639
4 1463 -2.4141
4 1464 -0.500237
4 1465 -6.825922
4 1466 -3.800966
4 1467 -0.041256
4 1468 -6.662639
4 1469 -2.4141
4 1470 -0.500237
4 1471 -6.825922
4 1472 -3.800966
4 1473 -0.041256
4 1474 -6.662639
4 1475 -2.4141
4 1476 -0.500237
4 1477 -6.825922
4 1478 -3.800966
4 1479 -0.041256
4 1480 -6.662639
4 1481 -2.414101
4 1482 -0.50022
4 1483 -8.109125
4 1484 -3.800972
4 1485 -0.041252
4 1486 -7.946147
4 1487 -1.555
4 1491 -1.5575
4 1918 -1.0705
4 1920 -1.0705
4 1921 -25.0715
4 1922 -25.0385
4 1923 -52.4615
4 1924 -52.4615
4 1925 -1.872314
4 1926 -0.324075
4 1927 -3.042101
4 1928 -2.600011
4 1929 -0.032663
4 1930 -3.081252
4 1931 -1.121518
4 1932 -0.324075
4 1933 -3.042101
4 1934 -1.65297
4 1935 -0.032671
4 1936 -3.081258
4 1937 -1.121518
4 1938 -0.324075
4 1939 -3.042101
4 1940 -1.65297
4 1941 -0.032671
4 1942 -3.081258
4 1943 -1.121518
4 1944 -0.324075
4 1945 -3.042101
4 1946 -1.65297
4 1947 -0.032671
4 1948 -3.081258
4 1949 -1.121518
4 1950 -0.324075
4 1951 -3.042101
4 1952 -1.65297
4 1953 -0.032671
4 1954 -3.081258
4 1955 -1.121518
4 1956 -0.324075
4 1957 -3.042101
4 1958 -1.65297
4 1959 -0.032671
4 1960 -3.081258
4 1961 -1.121518
4 1962 -0.324075
4 1963 -3.042101
4 1964 -1.65297
4 1965 -0.032671
4 1966 -3.081258
4 1967 -1.121518
4 1968 -0.324075
4 1969 -3.042101
4 1970 -1.65297
4 1971 -0.032671
4 1972 -3.081258
4 1973 -1.121518
4 1974 -0.324075
4 1975 -3.042101
4 1976 -1.65297
4 1977 -0.032671
4 1978 -3.081258
4 1979 -1.121518
4 1980 -0.324075
4 1981 -3.042101
4 1982 -1.65297
4 1983 -0.032671
4 1984 -3.081258
4 1985 -1.121518
4 1986 -0.324075
4 1987 -3.042101
4 1988 -1.65297
4 1989 -0.032671
4 1990 -3.081258
4 1991 -1.121518
4 1992 -0.324075
4 1993 -3.042101
4 1994 -1.65297
4 1995 -0.032671
4 1996 -3.081258
4 1997 -1.121518
4 1998 -0.324075
4 1999 -3.042101
4 2000 -1.65297
4 2001 -0.032671
4 2002 -3.081258
4 2003 -1.121518
4 2004 -0.324075
4 2005 -3.042101
4 2006 -1.65297
4 2007 -0.032671
4 2008 -3.081258
4 2009 -1.121518
4 2010 -0.324077
4 2011 -3.679159
4 2012 -1.652976
4 2013 -0.032667
4 2014 -3.718228
4 2015 -5.6965
4 2016 -3.047282
4 2017 -0.062725
4 2018 -6.82453
4 2019 -5.6545
4 2020 -2.038661
4 2021 -0.435386
4 2022 -6.93953
4 2023 -3.047271
4 2024 -0.062735
4 2025 -5.717428
4 2026 -2.03866
4 2027 -0.435399
4 2028 -5.832618
4 2029 -3.047271
4 2030 -0.062735
4 2031 -5.717428
4 2032 -2.03866
4 2033 -0.435399
4 2034 -5.832618
4 2035 -3.047282
4 2036 -0.062725
4 2037 -6.82453
4 2038 -2.038661
4 2039 -0.435386
4 2040 -6.93953
4 2041 -27.4455
4 2042 -4.198415
4 2043 -0.454177
4 2044 -6.821553
4 2045 -27.7895
4 2046 -5.631683
4 2047 -0.059007
4 2048 -6.679539
4 2049 -2.530899
4 2050 -0.454244
4 2051 -6.821561
4 2052 -3.647601
4 2053 -0.059016
4 2054 -6.679546
4 2055 -2.530899
4 2056 -0.454244
4 2057 -6.821561
4 2058 -3.647601
4 2059 -0.059016
4 2060 -6.679546
4 2061 -2.530899
4 2062 -0.454244
4 2063 -6.821561
4 2064 -3.647601
4 2065 -0.059016
4 2066 -6.679546
4 2067 -2.530899
4 2068 -0.454244
4 2069 -6.821561
4 2070 -3.647601
4 2071 -0.059016
4 2072 -6.679546
4 2073 -2.530899
4 2074 -0.454244
4 2075 -6.821561
4 2076 -3.647601
4 2077 -0.059016
4 2078 -6.679546
4 2079 -2.530899
4 2080 -0.454244
4 2081 -6.821561
4 2082 -3.647601
4 2083 -0.059016
4 2084 -6.679546
4 2085 -2.530899
4 2086 -0.454244
4 2087 -6.821561
4 2088 -3.647601
4 2089 -0.059016
4 2090 -6.679546
4 2091 -2.530899
4 2092 -0.454244
4 2093 -6.821561
4 2094 -3.647601
4 2095 -0.059016
4 2096 -6.679546
4 2097 -2.530899
4 2098 -0.454244
4 2099 -6.821561
4 2100 -3.647601
4 2101 -0.059016
4 2102 -6.679546
4 2103 -2.530906
4 2104 -0.454223
4 2105 -8.104781
4 2106 -3.647612
4 2107 -0.059007
4 2108 -7.962992
4 2109 -1.555
4 2113 -1.5575
4 2540 -1.0705
4 2542 -1.0705
4 2544 -25.0715
4 2545 -25.0385
4 2547 -52.4615
4 2548 -52.4615
4 2549 -1.855538
4 2550 -0.366106
4 2551 -2.995065
4 2552 -2.638551
4 2553 -0.025772
4 2554 -3.073517
4 2555 -1.112783
4 2556 -0.366107
4 2557 -2.995063
4 2558 -1.682722
4 2559 -0.025778
4 2560 -3.073523
4 2561 -1.112783
4 2562 -0.366107
4 2563 -2.995063
4 2564 -1.682722
4 2565 -0.025778
4 2566 -3.073523
4 2567 -1.112783
4 2568 -0.366107
4 2569 -2.995063
4 2570 -1.682722
4 2571 -0.025778
4 2572 -3.073523
4 2573 -1.112783
4 2574 -0.366107
4 2575 -2.995063
4 2576 -1.682722
4 2577 -0.025778
4 2578 -3.073523
4 2579 -1.112783
4 2580 -0.366107
4 2581 -2.995063
4 2582 -1.682722
4 2583 -0.025778
4 2584 -3.073523
4 2585 -1.112783
4 2586 -0.366107
4 2587 -2.995063
4 2588 -1.682722
4 2589 -0.025778
4 2590 -3.073523
4 2591 -1.112783
4 2592 -0.366107
4 2593 -2.995063
4 2594 -1.682722
4 2595 -0.025778
4 2596 -3.073523
4 2597 -1.112783
4 2598 -0.366107
4 2599 -2.995063
4 2600 -1.682722
4 2601 -0.025778
4 2602 -3.073523
4 2603 -1.112783
4 2604 -0.366107
4 2605 -2.995063
4 2606 -1.682722
4 2607 -0.025778
4 2608 -3.073523
4 2609 -1.112783
4 2610 -0.366107
4 2611 -2.995063
4 2612 -1.682722
4 2613 -0.025778
4 2614 -3.073523
4 2615 -1.112783
4 2616 -0.366107
4 2617 -2.995063
4 2618 -1.682722
4 2619 -0.025778
4 2620 -3.073523
4 2621 -1.112783
4 2622 -0.366107
4 2623 -2.995063
4 2624 -1.682722
4 2625 -0.025778
4 2626 -3.073523
4 2627 -1.112783
4 2628 -0.366107
4 2629 -2.995063
4 2630 -1.682722
4 2631 -0.025778
4 2632 -3.073523
4 2633 -1.112784
4 2634 -0.366115
4 2635 -3.632111
4 2636 -1.682726
4 2637 -0.025776
4 2638 -3.710507
4 2639 -5.6965
4 2640 -2.340902
4 2641 -0.30752
4 2642 -6.922179
4 2643 -5.6545
4 2644 -2.643206
4 2645 -0.174814
4 2646 -6.882969
4 2647 -2.340886
4 2648 -0.307543
4 2649 -5.815226
4 2650 -2.643185
4 2651 -0.174837
4 2652 -5.775967
4 2653 -2.340886
4 2654 -0.307543
4 2655 -5.815226
4 2656 -2.643185
4 2657 -0.174837
4 2658 -5.775967
4 2659 -2.340902
4 2660 -0.30752
4 2661 -6.922179
4 2662 -2.643206
4 2663 -0.174814
4 2664 -6.882969
4 2665 -5.602688
4 2666 -0.061935
4 2667 -6.681872
4 2668 -3.961283
4 2669 -0.515429
4 2670 -6.826721
4 2671 -3.626907
4 2672 -0.061948
4 2673 -6.681883
4 2674 -2.361006
4 2675 -0.515447
4 2676 -6.826722
4 2677 -3.626907
4 2678 -0.061948
4 2679 -6.681883
4 2680 -2.361006
4 2681 -0.515447
4 2682 -6.826722
4 2683 -3.626907
4 2684 -0.061948
4 2685 -6.681883
4 2686 -2.361006
4 2687 -0.515447
4 2688 -6.826722
4 2689 -3.626907
4 2690 -0.061948
4 2691 -6.681883
4 2692 -2.361006
4 2693 -0.515447
4 2694 -6.826722
4 2695 -3.626907
4 2696 -0.061948
4 2697 -6.681883
4 2698 -2.361006
4 2699 -0.515447
4 2700 -6.826722
4 2701 -3.626907
4 2702 -0.061948
4 2703 -6.681883
4 2704 -2.361006
4 2705 -0.515447
4 2706 -6.826722
4 2707 -3.626907
4 2708 -0.061948
4 2709 -6.681883
4 2710 -2.361006
4 2711 -0.515447
4 2712 -6.826722
4 2713 -3.626907
4 2714 -0.061948
4 2715 -6.681883
4 2716 -2.361006
4 2717 -0.515447
4 2718 -6.826722
4 2719 -3.626907
4 2720 -0.061948
4 2721 -6.681883
4 2722 -2.361006
4 2723 -0.515447
4 2724 -6.826722
4 2725 -3.626918
4 2726 -0.061939
4 2727 -7.965324
4 2728 -2.361006
4 2729 -0.515431
4 2730 -8.109917
4 2731 -1.555
4 2735 -1.5575
4 3162 -1.0705
4 3164 -1.0705
4 3166 -25.0715
4 3167 -25.0385
4 3169 -52.4615
4 3170 -52.4615
4 3171 -1.881374
4 3172 -0.250572
4 3173 -3.123698
4 3174 -2.516369
4 3175 -0.048746
4 3176 -3.093794
4 3177 -1.124797
4 3178 -0.250572
4 3179 -3.123698
4 3180 -1.589235
4 3181 -0.04876
4 3182 -3.093802
4 3183 -1.124797
4 3184 -0.250572
4 3185 -3.123698
4 3186 -1.589235
4 3187 -0.04876
4 3188 -3.093802
4 3189 -1.124797
4 3190 -0.250572
4 3191 -3.123698
4 3192 -1.589235
4 3193 -0.04876
4 3194 -3.093802
4 3195 -1.124797
4 3196 -0.250572
4 3197 -3.123698
4 3198 -1.589235
4 3199 -0.04876
4 3200 -3.093802
4 3201 -1.124797
4 3202 -0.250572
4 3203 -3.123698
4 3204 -1.589235
4 3205 -0.04876
4 3206 -3.093802
4 3207 -1.124797
4 3208 -0.250572
4 3209 -3.123698
4 3210 -1.589235
4 3211 -0.04876
4 3212 -3.093802
4 3213 -1.124797
4 3214 -0.250572
4 3215 -3.123698
4 3216 -1.589235
4 3217 -0.04876
4 3218 -3.093802
4 3219 -1.124797
4 3220 -0.250572
4 3221 -3.123698
4 3222 -1.589235
4 3223 -0.04876
4 3224 -3.093802
4 3225 -1.124797
4 3226 -0.250572
4 3227 -3.123698
4 3228 -1.589235
4 3229 -0.04876
4 3230 -3.093802
4 3231 -1.124797
4 3232 -0.250572
4 3233 -3.123698
4 3234 -1.589235
4 3235 -0.04876
4 3236 -3.093802
4 3237 -1.124797
4 3238 -0.250572
4 3239 -3.123698
4 3240 -1.589235
4 3241 -0.04876
4 3242 -3.093802
4 3243 -1.124797
4 3244 -0.250572
4 3245 -3.123698
4 3246 -1.589235
4 3247 -0.04876
4 3248 -3.093802
4 3249 -1.124797
4 3250 -0.250572
4 3251 -3.123698
4 3252 -1.589235
4 3253 -0.04876
4 3254 -3.093802
4 3255 -1.124797
4 3256 -0.250577
4 3257 -3.760743
4 3258 -1.589242
4 3259 -0.048754
4 3260 -3.73076
4 3261 -5.6965
4 3262 -2.547305
4 3263 -0.213616
4 3264 -6.897024
4 3265 -5.6545
4 3266 -2.42665
4 3267 -0.266736
4 3268 -6.912294
4 3269 -2.547284
4 3270 -0.213641
4 3271 -5.790043
4 3272 -2.426631
4 3273 -0.266762
4 3274 -5.805331
4 3275 -2.547284
4 3276 -0.213641
4 3277 -5.790043
4 3278 -2.426631
4 3279 -0.266762
4 3280 -5.805331
4 3281 -2.547305
4 3282 -0.213616
4 3283 -6.897024
4 3284 -2.42665
4 3285 -0.266736
4 3286 -6.912294
4 3287 -5.566757
4 3288 -0.065894
4 3289 -6.685033
4 3290 -3.999856
4 3291 -0.508685
4 3292 -6.826534
4 3293 -3.601067
4 3294 -0.06591
4 3295 -6.685045
4 3296 -2.386899
4 3297 -0.508706
4 3298 -6.826535
4 3299 -3.601067
4 3300 -0.06591
4 3301 -6.685045
4 3302 -2.386899
4 3303 -0.508706
4 3304 -6.826535
4 3305 -3.601067
4 3306 -0.06591
4 3307 -6.685045
4 3308 -2.386899
4 3309 -0.508706
4 3310 -6.826535
4 3311 -3.601067
4 3312 -0.06591
4 3313 -6.685045
4 3314 -2.386899
4 3315 -0.508706
4 3316 -6.826535
4 3317 -3.601067
4 3318 -0.06591
4 3319 -6.685045
4 3320 -2.386899
4 3321 -0.508706
4 3322 -6.826535
4 3323 -3.601067
4 3324 -0.06591
4 3325 -6.685045
4 3326 -2.386899
4 3327 -0.508706
4 3328 -6.826535
4 3329 -3.601067
4 3330 -0.06591
4 3331 -6.685045
4 3332 -2.386899
4 3333 -0.508706
4 3334 -6.826535
4 3335 -3.601067
4 3336 -0.06591
4 3337 -6.685045
4 3338 -2.386899
4 3339 -0.508706
4 3340 -6.826535
4 3341 -3.601067
4 3342 -0.06591
4 3343 -6.685045
4 3344 -2.386899
4 3345 -0.508706
4 3346 -6.826535
4 3347 -3.601078
4 3348 -0.0659
4 3349 -7.968481
4 3350 -2.3869
4 3351 -0.50869
4 3352 -8.109734
4 3353 -1.555
4 3357 -1.5575
4 3784 -1.0705
4 3786 -1.0705
4 3788 -25.0715
4 3789 -25.0385
4 3791 -52.4615
4 3792 -52.4615
4 3793 -1.89057
4 3794 -0.230067
4 3795 -3.144751
4 3796 -2.459786
4 3797 -0.063599
4 3798 -3.102987
4 3799 -1.129675
4 3800 -0.230067
4 3801 -3.144751
4 3802 -1.544392
4 3803 -0.063614
4 3804 -3.102994
4 3805 -1.129675
4 3806 -0.230067
4 3807 -3.144751
4 3808 -1.544392
4 3809 -0.063614
4 3810 -3.102994
4 3811 -1.129675
4 3812 -0.230067
4 3813 -3.144751
4 3814 -1.544392
4 3815 -0.063614
4 3816 -3.102994
4 3817 -1.129675
4 3818 -0.230067
4 3819 -3.144751
4 3820 -1.544392
4 3821 -0.063614
4 3822 -3.102994
4 3823 -1.129675
4 3824 -0.230067
4 3825 -3.144751
4 3826 -1.544392
4 3827 -0.063614
4 3828 -3.102994
4 3829 -1.129675
4 3830 -0.230067
4 3831 -3.144751
4 3832 -1.544392
4 3833 -0.063614
4 3834 -3.102994
4 3835 -1.129675
4 3836 -0.230067
4 3837 -3.144751
4 3838 -1.544392
4 3839 -0.063614
4 3840 -3.102994
4 3841 -1.129675
4 3842 -0.230067
4 3843 -3.144751
4 3844 -1.544392
4 3845 -0.063614
4 3846 -3.102994
4 3847 -1.129675
4 3848 -0.230067
4 3849 -3.144751
4 3850 -1.544392
4 3851 -0.063614
4 3852 -3.102994
4 3853 -1.129675
4 3854 -0.230067
4 3855 -3.144751
4 3856 -1.544392
4 3857 -0.063614
4 3858 -3.102994
4 3859 -1.129675
4 3860 -0.230067
4 3861 -3.144751
4 3862 -1.544392
4 3863 -0.063614
4 3864 -3.102994
4 3865 -1.129675
4 3866 -0.230067
4 3867 -3.144751
4 3868 -1.544392
4 3869 -0.063614
4 3870 -3.102994
4 3871 -1.129675
4 3872 -0.230067
4 3873 -3.144751
4 3874 -1.544392
4 3875 -0.063614
4 3876 -3.102994
4 3877 -1.129675
4 3878 -0.230068
4 3879 -3.781806
4 3880 -1.5444
4 3881 -0.063607
4 3882 -3.739942
4 3883 -5.6965
4 3884 -2.719806
4 3885 -0.147506
4 3886 -6.872033
4 3887 -5.6545
4 3888 -2.281219
4 3889 -0.335865
4 3890 -6.92762
4 3891 -2.719785
4 3892 -0.147527
4 3893 -5.765021
4 3894 -2.281206
4 3895 -0.335887
4 3896 -5.820674
4 3897 -2.719785
4 3898 -0.147527
4 3899 -5.765021
4 3900 -2.281206
4 3901 -0.335887
4 3902 -5.820674
4 3903 -2.719806
4 3904 -0.147506
4 3905 -6.872033
4 3906 -2.281219
4 3907 -0.335865
4 3908 -6.92762
4 3909 -5.468223
4 3910 -0.078302
4 3911 -6.694353
4 3912 -4.069348
4 3913 -0.493259
4 3914 -6.825679
4 3915 -3.529398
4 3916 -0.078324
4 3917 -6.694368
4 3918 -2.435264
4 3919 -0.493291
4 3920 -6.825681
4 3921 -3.529398
4 3922 -0.078324
4 3923 -6.694368
4 3924 -2.435264
4 3925 -0.493291
4 3926 -6.825681
4 3927 -3.529398
4 3928 -0.078324
4 3929 -6.694368
4 3930 -2.435264
4 3931 -0.493291
4 3932 -6.825681
4 3933 -3.529398
4 3934 -0.078324
4 3935 -6.694368
4 3936 -2.435264
4 3937 -0.493291
4 3938 -6.825681
4 3939 -3.529398
4 3940 -0.078324
4 3941 -6.694368
4 3942 -2.435264
4 3943 -0.493291
4 3944 -6.825681
4 3945 -3.529398
4 3946 -0.078324
4 3947 -6.694368
4 3948 -2.435264
4 3949 -0.493291
4 3950 -6.825681
4 3951 -3.529398
4 3952 -0.078324
4 3953 -6.694368
4 3954 -2.435264
4 3955 -0.493291
4 3956 -6.825681
4 3957 -3.529398
4 3958 -0.078324
4 3959 -6.694368
4 3960 -2.435264
4 3961 -0.493291
4 3962 -6.825681
4 3963 -3.529398
4 3964 -0.078324
4 3965 -6.694368
4 3966 -2.435264
4 3967 -0.493291
4 3968 -6.825681
4 3969 -3.529412
4 3970 -0.078311
4 3971 -7.977776
4 3972 -2.435267
4 3973 -0.493274
4 3974 -8.108887
4 3975 -1.555
4 3979 -1.5575
4 4406 -1.0705
4 4408 -1.0705
4 4410 -25.0715
4 4411 -25.0385
4 4413 -52.4615
4 4414 -52.4615
4 4415 -1.880303
4 4416 -0.249546
4 4417 -3.124828
4 4418 -2.51611
4 4419 -0.048639
4 4420 -3.093634
4 4421 -1.124131
4 4422 -0.249546
4 4423 -3.124829
4 4424 -1.589175
4 4425 -0.048649
4 4426 -3.09364
4 4427 -1.124131
4 4428 -0.249546
4 4429 -3.124829
4 4430 -1.589175
4 4431 -0.048649
4 4432 -3.09364
4 4433 -1.124131
4 4434 -0.249546
4 4435 -3.124829
4 4436 -1.589175
4 4437 -0.048649
4 4438 -3.09364
4 4439 -1.124131
4 4440 -0.249546
4 4441 -3.124829
4 4442 -1.589175
4 4443 -0.048649
4 4444 -3.09364
4 4445 -1.124131
4 4446 -0.249546
4 4447 -3.124829
4 4448 -1.589175
4 4449 -0.048649
4 4450 -3.09364
4 4451 -1.124131
4 4452 -0.249546
4 4453 -3.124829
4 4454 -1.589175
4 4455 -0.048649
4 4456 -3.09364
4 4457 -1.124131
4 4458 -0.249546
4 4459 -3.124829
4 4460 -1.589175
4 4461 -0.048649
4 4462 -3.09364
4 4463 -1.124131
4 4464 -0.249546
4 4465 -3.124829
4 4466 -1.589175
4 4467 -0.048649
4 4468 -3.09364
4 4469 -1.124131
4 4470 -0.249546
4 4471 -3.124829
4 4472 -1.589175
4 4473 -0.048649
4 4474 -3.09364
4 4475 -1.124131
4 4476 -0.249546
4 4477 -3.124829
4 4478 -1.589175
4 4479 -0.048649
4 4480 -3.09364
4 4481 -1.124131
4 4482 -0.249546
4 4483 -3.124829
4 4484 -1.589175
4 4485 -0.048649
4 4486 -3.09364
4 4487 -1.124131
4 4488 -0.249546
4 4489 -3.124829
4 4490 -1.589175
4 4491 -0.048649
4 4492 -3.09364
4 4493 -1.124131
4 4494 -0.249546
4 4495 -3.124829
4 4496 -1.589175
4 4497 -0.048649
4 4498 -3.09364
4 4499 -1.124131
4 4500 -0.249545
4 4501 -3.761895
4 4502 -1.589182
4 4503 -0.048643
4 4504 -3.730589
4 4505 -5.6965
4 4506 -2.852508
4 4507 -0.106545
4 4508 -6.852118
4 4509 -5.6545
4 4510 -2.187682
4 4511 -0.379772
4 4512 -6.934574
4 4513 -2.852491
4 4514 -0.106561
4 4515 -5.745074
4 4516 -2.187675
4 4517 -0.379791
4 4518 -5.82764
4 4519 -2.852491
4 4520 -0.106561
4 4521 -5.745074
4 4522 -2.187675
4 4523 -0.379791
4 4524 -5.82764
4 4525 -2.852508
4 4526 -0.106545
4 4527 -6.852118
4 4528 -2.187682
4 4529 -0.379772
4 4530 -6.934574
4 4531 -5.325832
4 4532 -0.100461
4 4533 -6.709072
4 4534 -4.166725
4 4535 -0.465165
4 4536 -6.823117
4 4537 -3.4238
4 4538 -0.100493
4 4539 -6.709092
4 4540 -2.506648
4 4541 -0.465213
4 4542 -6.823123
4 4543 -3.4238
4 4544 -0.100493
4 4545 -6.709092
4 4546 -2.506648
4 4547 -0.465213
4 4548 -6.823123
4 4549 -3.4238
4 4550 -0.100493
4 4551 -6.709092
4 4552 -2.506648
4 4553 -0.465213
4 4554 -6.823123
4 4555 -3.4238
4 4556 -0.100493
4 4557 -6.709092
4 4558 -2.506648
4 4559 -0.465213
4 4560 -6.823123
4 4561 -3.4238
4 4562 -0.100493
4 4563 -6.709092
4 4564 -2.506648
4 4565 -0.465213
4 4566 -6.823123
4 4567 -3.4238
4 4568 -0.100493
4 4569 -6.709092
4 4570 -2.506648
4 4571 -0.465213
4 4572 -6.823123
4 4573 -3.4238
4 4574 -0.100493
4 4575 -6.709092
4 4576 -2.506648
4 4577 -0.465213
4 4578 -6.823123
4 4579 -3.4238
4 4580 -0.100493
4 4581 -6.709092
4 4582 -2.506648
4 4583 -0.465213
4 4584 -6.823123
4 4585 -3.4238
4 4586 -0.100493
4 4587 -6.709092
4 4588 -2.506648
4 4589 -0.465213
4 4590 -6.823123
4 4591 -3.423818
4 4592 -0.100477
4 4593 -7.992468
4 4594 -2.506653
4 4595 -0.465194
4 4596 -8.106337
4 4597 -1.555
4 4601 -1.5575
4 5028 -1.0705
4 5030 -1.0705
4 5032 -25.0715
4 5033 -25.0385
4 5035 -52.4615
4 5036 -52.4615
4 5037 -1.869191
4 5038 -0.296223
4 5039 -3.073535
4 5040 -2.579893
4 5041 -0.035333
4 5042 -3.083203
4 5043 -1.118871
4 5044 -0.296222
4 5045 -3.073536
4 5046 -1.638448
4 5047 -0.03534
4 5048 -3.083208
4 5049 -1.118871
4 5050 -0.296222
4 5051 -3.073536
4 5052 -1.638448
4 5053 -0.03534
4 5054 -3.083208
4 5055 -1.118871
4 5056 -0.296222
4 5057 -3.073536
4 5058 -1.638448
4 5059 -0.03534
4 5060 -3.083208
4 5061 -1.118871
4 5062 -0.296222
4 5063 -3.073536
4 5064 -1.638448
4 5065 -0.03534
4 5066 -3.083208
4 5067 -1.118871
4 5068 -0.296222
4 5069 -3.073536
4 5070 -1.638448
4 5071 -0.03534
4 5072 -3.083208
4 5073 -1.118871
4 5074 -0.296222
4 5075 -3.073536
4 5076 -1.638448
4 5077 -0.03534
4 5078 -3.083208
4 5079 -1.118871
4 5080 -0.296222
4 5081 -3.073536
4 5082 -1.638448
4 5083 -0.03534
4 5084 -3.083208
4 5085 -1.118871
4 5086 -0.296222
4 5087 -3.073536
4 5088 -1.638448
4 5089 -0.03534
4 5090 -3.083208
4 5091 -1.118871
4 5092 -0.296222
4 5093 -3.073536
4 5094 -1.638448
4 5095 -0.03534
4 5096 -3.083208
4 5097 -1.118871
4 5098 -0.296222
4 5099 -3.073536
4 5100 -1.638448
4 5101 -0.03534
4 5102 -3.083208
4 5103 -1.118871
4 5104 -0.296222
4 5105 -3.073536
4 5106 -1.638448
4 5107 -0.03534
4 5108 -3.083208
4 5109 -1.118871
4 5110 -0.296222
4 5111 -3.073536
4 5112 -1.638448
4 5113 -0.03534
4 5114 -3.083208
4 5115 -1.118871
4 5116 -0.296222
4 5117 -3.073536
4 5118 -1.638448
4 5119 -0.03534
4 5120 -3.083208
4 5121 -1.118871
4 5122 -0.296222
4 5123 -3.7106
4 5124 -1.638454
4 5125 -0.035335
4 5126 -3.720165
4 5127 -5.6965
4 5128 -2.955074
4 5129 -0.081101
4 5130 -6.837171
4 5131 -5.6545
4 5132 -2.115996
4 5133 -0.410072
4 5134 -6.93793
4 5135 -2.95506
4 5136 -0.081114
4 5137 -5.7301
4 5138 -2.115993
4 5139 -0.410087
4 5140 -5.831005
4 5141 -2.95506
4 5142 -0.081114
4 5143 -5.7301
4 5144 -2.115993
4 5145 -0.410087
4 5146 -5.831005
4 5147 -2.955074
4 5148 -0.081101
4 5149 -6.837171
4 5150 -2.115996
4 5151 -0.410072
4 5152 -6.93793
4 5153 -5.158876
4 5154 -0.133499
4 5155 -6.727789
4 5156 -4.302232
4 5157 -0.417389
4 5158 -6.816572
4 5159 -3.296906
4 5160 -0.133545
4 5161 -6.727813
4 5162 -2.611428
4 5163 -0.417457
4 5164 -6.816583
4 5165 -3.296906
4 5166 -0.133545
4 5167 -6.727813
4 5168 -2.611428
4 5169 -0.417457
4 5170 -6.816583
4 5171 -3.296906
4 5172 -0.133545
4 5173 -6.727813
4 5174 -2.611428
4 5175 -0.417457
4 5176 -6.816583
4 5177 -3.296906
4 5178 -0.133545
4 5179 -6.727813
4 5180 -2.611428
4 5181 -0.417457
4 5182 -6.816583
4 5183 -3.296906
4 5184 -0.133545
4 5185 -6.727813
4 5186 -2.611428
4 5187 -0.417457
4 5188 -6.816583
4 5189 -3.296906
4 5190 -0.133545
4 5191 -6.727813
4 5192 -2.611428
4 5193 -0.417457
4 5194 -6.816583
4 5195 -3.296906
4 5196 -0.133545
4 5197 -6.727813
4 5198 -2.611428
4 5199 -0.417457
4 5200 -6.816583
4 5201 -3.296906
4 5202 -0.133545
4 5203 -6.727813
4 5204 -2.611428
4 5205 -0.417457
4 5206 -6.816583
4 5207 -3.296906
4 5208 -0.133545
4 5209 -6.727813
4 5210 -2.611428
4 5211 -0.417457
4 5212 -6.816583
4 5213 -3.296927
4 5214 -0.133524
4 5215 -8.011154
4 5216 -2.61144
4 5217 -0.417433
4 5218 -8.099813
4 5219 -1.555
4 5223 -1.5575
4 5650 -1.0705
4 5652 -1.0705
4 5653 -25.0715
4 5654 -25.0385
4 5655 -52.4615
4 5656 -52.4615
4 5657 -1.867179
4 5658 -0.322195
4 5659 -3.04435
4 5660 -2.60197
4 5661 -0.031752
4 5662 -3.080031
4 5663 -1.118421
4 5664 -0.322195
4 5665 -3.04435
4 5666 -1.654961
4 5667 -0.031759
4 5668 -3.080037
4 5669 -1.118421
4 5670 -0.322195
4 5671 -3.04435
4 5672 -1.654961
4 5673 -0.031759
4 5674 -3.080037
4 5675 -1.118421
4 5676 -0.322195
4 5677 -3.04435
4 5678 -1.654961
4 5679 -0.031759
4 5680 -3.080037
4 5681 -1.118421
4 5682 -0.322195
4 5683 -3.04435
4 5684 -1.654961
4 5685 -0.031759
4 5686 -3.080037
4 5687 -1.118421
4 5688 -0.322195
4 5689 -3.04435
4 5690 -1.654961
4 5691 -0.031759
4 5692 -3.080037
4 5693 -1.118421
4 5694 -0.322195
4 5695 -3.04435
4 5696 -1.654961
4 5697 -0.031759
4 5698 -3.080037
4 5699 -1.118421
4 5700 -0.322195
4 5701 -3.04435
4 5702 -1.654961
4 5703 -0.031759
4 5704 -3.080037
4 5705 -1.118421
4 5706 -0.322195
4 5707 -3.04435
4 5708 -1.654961
4 5709 -0.031759
4 5710 -3.080037
4 5711 -1.118421
4 5712 -0.322195
4 5713 -3.04435
4 5714 -1.654961
4 5715 -0.031759
4 5716 -3.080037
4 5717 -1.118421
4 5718 -0.322195
4 5719 -3.04435
4 5720 -1.654961
4 5721 -0.031759
4 5722 -3.080037
4 5723 -1.118421
4 5724 -0.322195
4 5725 -3.04435
4 5726 -1.654961
4 5727 -0.031759
4 5728 -3.080037
4 5729 -1.118421
4 5730 -0.322195
4 5731 -3.04435
4 5732 -1.654961
4 5733 -0.031759
4 5734 -3.080037
4 5735 -1.118421
4 5736 -0.322195
4 5737 -3.04435
4 5738 -1.654961
4 5739 -0.031759
4 5740 -3.080037
4 5741 -1.118421
4 5742 -0.322197
4 5743 -3.681409
4 5744 -1.654967
4 5745 -0.031755
4 5746 -3.717003
4 5747 -5.6965
4 5748 -3.041553
4 5749 -0.063759
4 5750 -6.825308
4 5751 -5.6545
4 5752 -2.064
4 5753 -0.428196
4 5754 -6.939213
4 5755 -3.041542
4 5756 -0.063769
4 5757 -5.718208
4 5758 -2.063998
4 5759 -0.42821
4 5760 -5.832296
4 5761 -3.041542
4 5762 -0.063769
4 5763 -5.718208
4 5764 -2.063998
4 5765 -0.42821
4 5766 -5.832296
4 5767 -3.041553
4 5768 -0.063759
4 5769 -6.825308
4 5770 -2.064
4 5771 -0.428196
4 5772 -6.939213
4 5773 -4.959782
4 5774 -0.183636
4 5775 -6.751195
4 5776 -4.463108
4 5777 -0.355404
4 5778 -6.80473
4 5779 -3.141446
4 5780 -0.183701
4 5781 -6.75122
4 5782 -2.740424
4 5783 -0.355482
4 5784 -6.804747
4 5785 -3.141446
4 5786 -0.183701
4 5787 -6.75122
4 5788 -2.740424
4 5789 -0.355482
4 5790 -6.804747
4 5791 -3.141446
4 5792 -0.183701
4 5793 -6.75122
4 5794 -2.740424
4 5795 -0.355482
4 5796 -6.804747
4 5797 -3.141446
4 5798 -0.183701
4 5799 -6.75122
4 5800 -2.740424
4 5801 -0.355482
4 5802 -6.804747
4 5803 -3.141446
4 5804 -0.183701
4 5805 -6.75122
4 5806 -2.740424
4 5807 -0.355482
4 5808 -6.804747
4 5809 -3.141446
4 5810 -0.183701
4 5811 -6.75122
4 5812 -2.740424
4 5813 -0.355482
4 5814 -6.804747
4 5815 -3.141446
4 5816 -0.183701
4 5817 -6.75122
4 5818 -2.740424
4 5819 -0.355482
4 5820 -6.804747
4 5821 -3.141446
4 5822 -0.183701
4 5823 -6.75122
4 5824 -2.740424
4 5825 -0.355482
4 5826 -6.804747
4 5827 -3.141446
4 5828 -0.183701
4 5829 -6.75122
4 5830 -2.740424
4 5831 -0.355482
4 5832 -6.804747
4 5833 -3.14147
4 5834 -0.183675
4 5835 -8.03453
4 5836 -2.740442
4 5837 -0.355454
4 5838 -8.087992
4 5839 -1.555
4 5843 -1.5575
4 6270 -1.0705
4 6272 -1.0705
4 6274 -25.0715
4 6275 -25.0385
4 6277 -52.4615
4 6278 -52.4615
4 6279 -2.156253
4 6280 -0.190135
4 6281 -3.141935
4 6282 -1.988804
4 6283 -0.209954
4 6284 -3.15346
4 6285 -1.292971
4 6286 -0.190133
4 6287 -3.141935
4 6288 -1.187483
4 6289 -0.209954
4 6290 -3.15346
4 6291 -1.292971
4 6292 -0.190133
4 6293 -3.141935
4 6294 -1.187483
4 6295 -0.209954
4 6296 -3.15346
4 6297 -1.292971
4 6298 -0.190133
4 6299 -3.141935
4 6300 -1.187483
4 6301 -0.209954
4 6302 -3.15346
4 6303 -1.292971
4 6304 -0.190133
4 6305 -3.141935
4 6306 -1.187483
4 6307 -0.209954
4 6308 -3.15346
4 6309 -1.292971
4 6310 -0.190133
4 6311 -3.141935
4 6312 -1.187483
4 6313 -0.209954
4 6314 -3.15346
4 6315 -1.292971
4 6316 -0.190133
4 6317 -3.141935
4 6318 -1.187483
4 6319 -0.209954
4 6320 -3.15346
4 6321 -1.292971
4 6322 -0.190133
4 6323 -3.141935
4 6324 -1.187483
4 6325 -0.209954
4 6326 -3.15346
4 6327 -1.292971
4 6328 -0.190133
4 6329 -3.141935
4 6330 -1.187483
4 6331 -0.209954
4 6332 -3.15346
4 6333 -1.292971
4 6334 -0.190133
4 6335 -3.141935
4 6336 -1.187483
4 6337 -0.209954
4 6338 -3.15346
4 6339 -1.292971
4 6340 -0.190133
4 6341 -3.141935
4 6342 -1.187483
4 6343 -0.209954
4 6344 -3.15346
4 6345 -1.292971
4 6346 -0.190133
4 6347 -3.141935
4 6348 -1.187483
4 6349 -0.209954
4 6350 -3.15346
4 6351 -1.292971
4 6352 -0.190133
4 6353 -3.141935
4 6354 -1.187483
4 6355 -0.209954
4 6356 -3.15346
4 6357 -1.292971
4 6358 -0.190133
4 6359 -3.141935
4 6360 -1.187483
4 6361 -0.209954
4 6362 -3.15346
4 6363 -1.292971
4 6364 -0.19013
4 6365 -3.778857
4 6366 -1.187483
4 6367 -0.209954
4 6368 -3.790527
4 6369 -5.6965
4 6370 -3.162942
4 6371 -0.045232
4 6372 -6.81022
4 6373 -5.6545
4 6374 -2.028374
4 6375 -0.438048
4 6376 -6.939718
4 6377 -3.162934
4 6378 -0.045238
4 6379 -5.703072
4 6380 -2.028373
4 6381 -0.438062
4 6382 -5.832806
4 6383 -3.162934
4 6384 -0.045238
4 6385 -5.703072
4 6386 -2.028373
4 6387 -0.438062
4 6388 -5.832806
4 6389 -3.162942
4 6390 -0.045232
4 6391 -6.81022
4 6392 -2.028374
4 6393 -0.438048
4 6394 -6.939718
4 6395 -27.4455
4 6396 -3.88296
4 6397 -0.525567
4 6398 -6.826782
4 6399 -27.7895
4 6400 -6.219639
4 6401 -0.026521
4 6402 -6.642844
4 6403 -2.310234
4 6404 -0.525577
4 6405 -6.826782
4 6406 -4.05101
4 6407 -0.026522
4 6408 -6.642844
4 6409 -2.310234
4 6410 -0.525577
4 6411 -6.826782
4 6412 -4.05101
4 6413 -0.026522
4 6414 -6.642844
4 6415 -2.310234
4 6416 -0.525577
4 6417 -6.826782
4 6418 -4.05101
4 6419 -0.026522
4 6420 -6.642844
4 6421 -2.310234
4 6422 -0.525577
4 6423 -6.826782
4 6424 -4.05101
4 6425 -0.026522
4 6426 -6.642844
4 6427 -2.310234
4 6428 -0.525577
4 6429 -6.826782
4 6430 -4.05101
4 6431 -0.026522
4 6432 -6.642844
4 6433 -2.310234
4 6434 -0.525577
4 6435 -6.826782
4 6436 -4.05101
4 6437 -0.026522
4 6438 -6.642844
4 6439 -2.310234
4 6440 -0.525577
4 6441 -6.826782
4 6442 -4.05101
4 6443 -0.026522
4 6444 -6.642844
4 6445 -2.310234
4 6446 -0.525577
4 6447 -6.826782
4 6448 -4.05101
4 6449 -0.026522
4 6450 -6.642844
4 6451 -2.310234
4 6452 -0.525577
4 6453 -6.826782
4 6454 -4.05101
4 6455 -0.026522
4 6456 -6.642844
4 6457 -2.310234
4 6458 -0.525562
4 6459 -8.109968
4 6460 -4.051012
4 6461 -0.026521
4 6462 -7.926467
4 6463 -1.555
4 6467 -1.5575
4 6894 -1.0705
4 6896 -1.0705
4 6897 -25.0715
4 6898 -25.0385
4 6899 -52.4615
4 6900 -52.4615
4 6901 -2.523901
4 6902 -0.045986
4 6903 -3.09132
4 6904 -1.873852
4 6905 -0.250448
4 6906 -3.123979
4 6907 -1.595942
4 6908 -0.045987
4 6909 -3.091321
4 6910 -1.120328
4 6911 -0.250446
4 6912 -3.123981
4 6913 -1.595942
4 6914 -0.045987
4 6915 -3.091321
4 6916 -1.120328
4 6917 -0.250446
4 6918 -3.123981
4 6919 -1.595942
4 6920 -0.045987
4 6921 -3.091321
4 6922 -1.120328
4 6923 -0.250446
4 6924 -3.123981
4 6925 -1.595942
4 6926 -0.045987
4 6927 -3.091321
4 6928 -1.120328
4 6929 -0.250446
4 6930 -3.123981
4 6931 -1.595942
4 6932 -0.045987
4 6933 -3.091321
4 6934 -1.120328
4 6935 -0.250446
4 6936 -3.123981
4 6937 -1.595942
4 6938 -0.045987
4 6939 -3.091321
4 6940 -1.120328
4 6941 -0.250446
4 6942 -3.123981
4 6943 -1.595942
4 6944 -0.045987
4 6945 -3.091321
4 6946 -1.120328
4 6947 -0.250446
4 6948 -3.123981
4 6949 -1.595942
4 6950 -0.045987
4 6951 -3.091321
4 6952 -1.120328
4 6953 -0.250446
4 6954 -3.123981
4 6955 -1.595942
4 6956 -0.045987
4 6957 -3.091321
4 6958 -1.120328
4 6959 -0.250446
4 6960 -3.123981
4 6961 -1.595942
4 6962 -0.045987
4 6963 -3.091321
4 6964 -1.120328
4 6965 -0.250446
4 6966 -3.123981
4 6967 -1.595942
4 6968 -0.045987
4 6969 -3.091321
4 6970 -1.120328
4 6971 -0.250446
4 6972 -3.123981
4 6973 -1.595942
4 6974 -0.045987
4 6975 -3.091321
4 6976 -1.120328
4 6977 -0.250446
4 6978 -3.123981
4 6979 -1.595942
4 6980 -0.045987
4 6981 -3.091321
4 6982 -1.120328
4 6983 -0.250446
4 6984 -3.123981
4 6985 -1.595952
4 6986 -0.04598
4 6987 -3.728238
4 6988 -1.120328
4 6989 -0.250438
4 6990 -3.761065
4 6991 -5.6965
4 6992 -3.013952
4 6993 -0.068747
4 6994 -6.828718
4 6995 -5.6545
4 6996 -2.107659
4 6997 -0.413447
4 6998 -6.938375
4 6999 -3.01394
4 7000 -0.068757
4 7001 -5.721621
4 7002 -2.107657
4 7003 -0.413462
4 7004 -5.83145
4 7005 -3.01394
4 7006 -0.068757
4 7007 -5.721621
4 7008 -2.107657
4 7009 -0.413462
4 7010 -5.83145
4 7011 -3.013952
4 7012 -0.068747
4 7013 -6.828718
4 7014 -2.107659
4 7015 -0.413447
4 7016 -6.938375
4 7017 -27.4455
4 7018 -3.874048
4 7019 -0.526474
4 7020 -6.826803
4 7021 -27.7895
4 7022 -6.27628
4 7023 -0.025451
4 7024 -6.640692
4 7025 -2.304583
4 7026 -0.526483
4 7027 -6.826803
4 7028 -4.088364
4 7029 -0.025451
4 7030 -6.640693
4 7031 -2.304583
4 7032 -0.526483
4 7033 -6.826803
4 7034 -4.088364
4 7035 -0.025451
4 7036 -6.640693
4 7037 -2.304583
4 7038 -0.526483
4 7039 -6.826803
4 7040 -4.088364
4 7041 -0.025451
4 7042 -6.640693
4 7043 -2.304583
4 7044 -0.526483
4 7045 -6.826803
4 7046 -4.088364
4 7047 -0.025451
4 7048 -6.640693
4 7049 -2.304583
4 7050 -0.526483
4 7051 -6.826803
4 7052 -4.088364
4 7053 -0.025451
4 7054 -6.640693
4 7055 -2.304583
4 7056 -0.526483
4 7057 -6.826803
4 7058 -4.088364
4 7059 -0.025451
4 7060 -6.640693
4 7061 -2.304583
4 7062 -0.526483
4 7063 -6.826803
4 7064 -4.088364
4 7065 -0.025451
4 7066 -6.640693
4 7067 -2.304583
4 7068 -0.526483
4 7069 -6.826803
4 7070 -4.088364
4 7071 -0.025451
4 7072 -6.640693
4 7073 -2.304583
4 7074 -0.526483
4 7075 -6.826803
4 7076 -4.088364
4 7077 -0.025451
4 7078 -6.640693
4 7079 -2.304583
4 7080 -0.526468
4 7081 -8.109987
4 7082 -4.088364
4 7083 -0.025451
4 7084 -7.924336
4 7085 -1.555
4 7089 -1.5575
4 7598 1.0
5 1 -1082.728478
5 2 -1004.249
5 4 -7.212
5 5 6276.673484
5 7 -0.347
5 8 -0.347
5 9 -0.347
5 10 -0.347
5 11 -0.347
5 12 -0.347
5 13 -0.347
5 14 -0.347
5 15 -0.347
5 16 -0.347
5 17 -0.347
5 18 -0.347
5 21 -1.252
5 25 -1.3995
5 29 -55.5965
5 32 -1.252
5 36 -1.252
5 40 -56.465
5 46 -2.0275
5 48 -2.094
5 50 -2.03
5 51 -1.968
5 53 -55.2875
5 54 -55.5525
5 171 -0.347
5 175 -0.347
5 649 -19.124108
5 650 -19.020096
5 651 -19.124108
5 652 -19.020096
5 653 -19.124108
5 654 -19.020096
5 655 -18.929248
5 656 -19.142002
5 657 -18.929248
5 658 -19.142002
5 659 -18.929248
5 660 -19.142002
5 672 -2.0275
5 674 -2.094
5 675 -2.03
5 676 -1.968
5 677 -55.2875
5 678 -55.5525
5 795 -0.347
5 799 -0.347
5 1273 -18.84231
5 1274 -19.146892
5 1275 -18.84231
5 1276 -19.146892
5 1277 -18.84231
5 1278 -19.146892
5 1279 -18.198464
5 1280 -19.155244
5 1281 -18.198464
5 1282 -19.155244
5 1283 -18.198464
5 1284 -19.155244
5 1296 -2.0275
5 1298 -2.094
5 1299 -2.03
5 1300 -1.968
5 1301 -55.2875
5 1302 -55.5525
5 1419 -0.347
5 1423 -0.347
5 1897 -18.058839
5 1898 -19.155647
5 1899 -18.058839
5 1900 -19.155647
5 1901 -18.058839
5 1902 -19.155647
5 1903 -17.368269
5 1904 -19.156684
5 1905 -17.368269
5 1906 -19.156684
5 1907 -17.368269
5 1908 -19.156684
5 1918 -2.0275
5 1920 -2.094
5 1921 -2.03
5 1922 -1.968
5 1923 -55.2875
5 1924 -55.5525
5 2041 -0.347
5 2045 -0.347
5 2519 -17.259923
5 2520 -19.156746
5 2521 -17.259923
5 2522 -19.156746
5 2523 -17.259923
5 2524 -19.156746
5 2525 -16.651845
5 2526 -19.157094
5 2527 -16.651845
5 2528 -19.157094
5 2529 -16.651845
5 2530 -19.157094
5 2540 -2.0275
5 2542 -2.094
5 2544 -2.03
5 2545 -1.968
5 2547 -55.2875
5 2548 -55.5525
5 3141 -17.066004
5 3142 -19.156191
5 3143 -17.066004
5 3144 -19.156191
5 3145 -17.066004
5 3146 -19.156191
5 3147 -15.550585
5 3148 -19.157439
5 3149 -15.550585
5 3150 -19.157439
5 3151 -15.550585
5 3152 -19.157439
5 3162 -2.0275
5 3164 -2.094
5 3166 -2.03
5 3167 -1.968
5 3169 -55.2875
5 3170 -55.5525
5 3763 -17.590924
5 3764 -19.154819
5 3765 -17.590924
5 3766 -19.154819
5 3767 -17.590924
5 3768 -19.154819
5 3769 -17.244984
5 3770 -19.155903
5 3771 -17.244984
5 3772 -19.155903
5 3773 -17.244984
5 3774 -19.155903
5 3784 -2.0275
5 3786 -2.094
5 3788 -2.03
5 3789 -1.968
5 3791 -55.2875
5 3792 -55.5525
5 4385 -17.337326
5 4386 -19.155603
5 4387 -17.337326
5 4388 -19.155603
5 4389 -17.337326
5 4390 -19.155603
5 4391 -17.60067
5 4392 -19.154749
5 4393 -17.60067
5 4394 -19.154749
5 4395 -17.60067
5 4396 -19.154749
5 4406 -2.0275
5 4408 -2.094
5 4410 -2.03
5 4411 -1.968
5 4413 -55.2875
5 4414 -55.5525
5 5007 -16.767364
5 5008 -19.15663
5 5009 -16.767364
5 5010 -19.15663
5 5011 -16.767364
5 5012 -19.15663
5 5013 -17.213503
5 5014 -19.15587
5 5015 -17.213503
5 5016 -19.15587
5 5017 -17.213503
5 5018 -19.15587
5 5028 -2.0275
5 5030 -2.094
5 5032 -2.03
5 5033 -1.968
5 5035 -55.2875
5 5036 -55.5525
5 5629 -16.492379
5 5630 -19.157007
5 5631 -16.492379
5 5632 -19.157007
5 5633 -16.492379
5 5634 -19.157007
5 5635 -16.60397
5 5636 -19.156821
5 5637 -16.60397
5 5638 -19.156821
5 5639 -16.60397
5 5640 -19.156821
5 5650 -2.0275
5 5652 -2.094
5 5653 -2.03
5 5654 -1.968
5 5655 -55.2875
5 5656 -55.5525
5 6249 -16.584419
5 6250 -19.157046
5 6251 -16.584419
5 6252 -19.157046
5 6253 -16.584419
5 6254 -19.157046
5 6255 -16.409267
5 6256 -19.157092
5 6257 -16.409267
5 6258 -19.157092
5 6259 -16.409267
5 6260 -19.157092
5 6270 -2.0275
5 6272 -2.094
5 6274 -2.03
5 6275 -1.968
5 6277 -55.2875
5 6278 -55.5525
5 6395 -0.347
5 6399 -0.347
5 6873 -19.154651
5 6874 -17.650676
5 6875 -19.154651
5 6876 -17.650676
5 6877 -19.154651
5 6878 -17.650676
5 6879 -19.137228
5 6880 -18.923665
5 6881 -19.137228
5 6882 -18.923665
5 6883 -19.137228
5 6884 -18.923665
5 6894 -2.0275
5 6896 -2.094
5 6897 -2.03
5 6898 -1.968
5 6899 -55.2875
5 6900 -55.5525
5 7017 -0.347
5 7021 -0.347
5 7495 -19.157049
5 7496 -16.125751
5 7497 -19.157049
5 7498 -16.125751
5 7499 -19.157049
5 7500 -16.125751
5 7501 -19.155926
5 7502 -16.976751
5 7503 -19.155926
5 7504 -16.976751
5 7505 -19.155926
5 7506 -16.976751
5 7593 1.0
6 1 -1672.287
6 2 -1911.752
6 4 -2609.9275
6 6 6610.044571
6 7 -0.4565
6 8 -0.454
6 9 -0.4565
6 10 -0.454
6 11 -0.4565
6 12 -0.454
6 13 -0.4565
6 14 -0.454
6 15 -0.4565
6 16 -0.454
6 17 -0.4565
6 18 -0.454
6 21 -2.069
6 25 -5.292
6 29 -40.5525
6 36 -4.1375
6 40 -42.3995
6 50 -0.315
6 51 -0.31
6 145 -0.0405
6 149 -0.0345
6 171 -0.454
6 175 -0.4565
6 239 -11.935
6 241 -0.013755
6 243 -11.9355
6 245 -0.013755
6 248 -0.013755
6 251 -0.013755
6 254 -0.013755
6 257 -0.013755
6 260 -0.013755
6 263 -0.013755
6 266 -0.013755
6 269 -0.013755
6 272 -0.013755
6 275 -0.013755
6 278 -0.013755
6 281 -0.013755
6 284 -0.013755
6 287 -0.013755
6 290 -0.013755
6 293 -0.013755
6 296 -0.013755
6 299 -0.013755
6 302 -0.013755
6 305 -0.013755
6 308 -0.013755
6 311 -0.013755
6 314 -0.013755
6 317 -0.013755
6 320 -0.013755
6 323 -0.013755
6 326 -0.013755
6 329 -0.013755
6 332 -0.013755
6 335 -0.013755
6 338 -0.013755
6 341 -0.013755
6 344 -0.013755
6 347 -0.013755
6 350 -0.013755
6 353 -0.013755
6 356 -0.013755
6 359 -0.013755
6 362 -0.013755
6 365 -0.013755
6 368 -0.013755
6 371 -0.013755
6 374 -0.013755
6 377 -0.013755
6 380 -0.013755
6 383 -0.013755
6 386 -0.013755
6 389 -0.013755
6 392 -0.013755
6 395 -0.013755
6 398 -0.013755
6 401 -0.013755
6 404 -0.013755
6 407 -0.013755
6 410 -0.013755
6 413 -0.013755
6 416 -0.013755
6 419 -0.013755
6 422 -0.013755
6 425 -0.013755
6 428 -0.013755
6 431 -0.013755
6 434 -0.013755
6 437 -0.013755
6 440 -0.013755
6 443 -0.013755
6 446 -0.013755
6 449 -0.013755
6 452 -0.013755
6 455 -0.013755
6 458 -0.013755
6 461 -0.013755
6 464 -0.013755
6 467 -0.013755
6 470 -0.013755
6 473 -0.013755
6 476 -0.013755
6 479 -0.013755
6 482 -0.013755
6 485 -0.013755
6 488 -0.013755
6 491 -0.013755
6 494 -0.013755
6 497 -0.013755
6 500 -0.013755
6 503 -0.013755
6 506 -0.013755
6 509 -0.013755
6 675 -0.315
6 676 -0.31
6 769 -0.0405
6 773 -0.0345
6 795 -0.454
6 799 -0.4565
6 863 -11.935
6 865 -0.013755
6 867 -11.9355
6 869 -0.013755
6 872 -0.013755
6 875 -0.013755
6 878 -0.013755
6 881 -0.013755
6 884 -0.013755
6 887 -0.013755
6 890 -0.013755
6 893 -0.013755
6 896 -0.013755
6 899 -0.013755
6 902 -0.013755
6 905 -0.013755
6 908 -0.013755
6 911 -0.013755
6 914 -0.013755
6 917 -0.013755
6 920 -0.013755
6 923 -0.013755
6 926 -0.013755
6 929 -0.013755
6 932 -0.013755
6 935 -0.013755
6 938 -0.013755
6 941 -0.013755
6 944 -0.013755
6 947 -0.013755
6 950 -0.013755
6 953 -0.013755
6 956 -0.013755
6 959 -0.013755
6 962 -0.013755
6 965 -0.013755
6 968 -0.013755
6 971 -0.013755
6 974 -0.013755
6 977 -0.013755
6 980 -0.013755
6 983 -0.013755
6 986 -0.013755
6 989 -0.013755
6 992 -0.013755
6 995 -0.013755
6 998 -0.013755
6 1001 -0.013755
6 1004 -0.013755
6 1007 -0.013755
6 1010 -0.013755
6 1013 -0.013755
6 1016 -0.013755
6 1019 -0.013755
6 1022 -0.013755
6 1025 -0.013755
6 1028 -0.013755
6 1031 -0.013755
6 1034 -0.013755
6 1037 -0.013755
6 1040 -0.013755
6 1043 -0.013755
6 1046 -0.013755
6 1049 -0.013755
6 1052 -0.013755
6 1055 -0.013755
6 1058 -0.013755
6 1061 -0.013755
6 1064 -0.013755
6 1067 -0.013755
6 1070 -0.013755
6 1073 -0.013755
6 1076 -0.013755
6 1079 -0.013755
6 1082 -0.013755
6 1085 -0.013755
6 1088 -0.013755
6 1091 -0.013755
6 1094 -0.013755
6 1097 -0.013755
6 1100 -0.013755
6 1103 -0.013755
6 1106 -0.013755
6 1109 -0.013755
6 1112 -0.013755
6 1115 -0.013755
6 1118 -0.013755
6 1121 -0.013755
6 1124 -0.013755
6 1127 -0.013755
6 1130 -0.013755
6 1133 -0.013755
6 1299 -0.315
6 1300 -0.31
6 1393 -0.0405
6 1397 -0.0345
6 1419 -0.454
6 1423 -0.4565
6 1487 -11.935
6 1489 -0.013755
6 1491 -11.9355
6 1493 -0.013755
6 1496 -0.013755
6 1499 -0.013755
6 1502 -0.013755
6 1505 -0.013755
6 1508 -0.013755
6 1511 -0.013755
6 1514 -0.013755
6 1517 -0.013755
6 1520 -0.013755
6 1523 -0.013755
6 1526 -0.013755
6 1529 -0.013755
6 1532 -0.013755
6 1535 -0.013755
6 1538 -0.013755
6 1541 -0.013755
6 1544 -0.013755
6 1547 -0.013755
6 1550 -0.013755
6 1553 -0.013755
6 1556 -0.013755
6 1559 -0.013755
6 1562 -0.013755
6 1565 -0.013755
6 1568 -0.013755
6 1571 -0.013755
6 1574 -0.013755
6 1577 -0.013755
6 1580 -0.013755
6 1583 -0.013755
6 1586 -0.013755
6 1589 -0.013755
6 1592 -0.013755
6 1595 -0.013755
6 1598 -0.013755
6 1601 -0.013755
6 1604 -0.013755
6 1607 -0.013755
6 1610 -0.013755
6 1613 -0.013755
6 1616 -0.013755
6 1619 -0.013755
6 1622 -0.013755
6 1625 -0.013755
6 1628 -0.013755
6 1631 -0.013755
6 1634 -0.013755
6 1637 -0.013755
6 1640 -0.013755
6 1643 -0.013755
6 1646 -0.013755
6 1649 -0.013755
6 1652 -0.013755
6 1655 -0.013755
6 1658 -0.013755
6 1661 -0.013755
6 1664 -0.013755
6 1667 -0.013755
6 1670 -0.013755
6 1673 -0.013755
6 1676 -0.013755
6 1679 -0.013755
6 1682 -0.013755
6 1685 -0.013755
6 1688 -0.013755
6 1691 -0.013755
6 1694 -0.013755
6 1697 -0.013755
6 1700 -0.013755
6 1703 -0.013755
6 1706 -0.013755
6 1709 -0.013755
6 1712 -0.013755
6 1715 -0.013755
6 1718 -0.013755
6 1721 -0.013755
6 1724 -0.013755
6 1727 -0.013755
6 1730 -0.013755
6 1733 -0.013755
6 1736 -0.013755
6 1739 -0.013755
6 1742 -0.013755
6 1745 -0.013755
6 1748 -0.013755
6 1751 -0.013755
6 1754 -0.013755
6 1757 -0.013755
6 1921 -0.315
6 1922 -0.31
6 2015 -0.0405
6 2019 -0.0345
6 2041 -0.454
6 2045 -0.4565
6 2109 -11.935
6 2111 -0.013755
6 2113 -11.9355
6 2115 -0.013755
6 2118 -0.013755
6 2121 -0.013755
6 2124 -0.013755
6 2127 -0.013755
6 2130 -0.013755
6 2133 -0.013755
6 2136 -0.013755
6 2139 -0.013755
6 2142 -0.013755
6 2145 -0.013755
6 2148 -0.013755
6 2151 -0.013755
6 2154 -0.013755
6 2157 -0.013755
6 2160 -0.013755
6 2163 -0.013755
6 2166 -0.013755
6 2169 -0.013755
6 2172 -0.013755
6 2175 -0.013755
6 2178 -0.013755
6 2181 -0.013755
6 2184 -0.013755
6 2187 -0.013755
6 2190 -0.013755
6 2193 -0.013755
6 2196 -0.013755
6 2199 -0.013755
6 2202 -0.013755
6 2205 -0.013755
6 2208 -0.013755
6 2211 -0.013755
6 2214 -0.013755
6 2217 -0.013755
6 2220 -0.013755
6 2223 -0.013755
6 2226 -0.013755
6 2229 -0.013755
6 2232 -0.013755
6 2235 -0.013755
6 2238 -0.013755
6 2241 -0.013755
6 2244 -0.013755
6 2247 -0.013755
6 2250 -0.013755
6 2253 -0.013755
6 2256 -0.013755
6 2259 -0.013755
6 2262 -0.013755
6 2265 -0.013755
6 2268 -0.013755
6 2271 -0.013755
6 2274 -0.013755
6 2277 -0.013755
6 2280 -0.013755
6 2283 -0.013755
6 2286 -0.013755
6 2289 -0.013755
6 2292 -0.013755
6 2295 -0.013755
6 2298 -0.013755
6 2301 -0.013755
6 2304 -0.013755
6 2307 -0.013755
6 2310 -0.013755
6 2313 -0.013755
6 2316 -0.013755
6 2319 -0.013755
6 2322 -0.013755
6 2325 -0.013755
6 2328 -0.013755
6 2331 -0.013755
6 2334 -0.013755
6 2337 -0.013755
6 2340 -0.013755
6 2343 -0.013755
6 2346 -0.013755
6 2349 -0.013755
6 2352 -0.013755
6 2355 -0.013755
6 2358 -0.013755
6 2361 -0.013755
6 2364 -0.013755
6 2367 -0.013755
6 2370 -0.013755
6 2373 -0.013755
6 2376 -0.013755
6 2379 -0.013755
6 2544 -0.315
6 2545 -0.31
6 2639 -0.0405
6 2643 -0.0345
6 2731 -11.935
6 2733 -0.013755
6 2735 -11.9355
6 2737 -0.013755
6 2740 -0.013755
6 2743 -0.013755
6 2746 -0.013755
6 2749 -0.013755
6 2752 -0.013755
6 2755 -0.013755
6 2758 -0.013755
6 2761 -0.013755
6 2764 -0.013755
6 2767 -0.013755
6 2770 -0.013755
6 2773 -0.013755
6 2776 -0.013755
6 2779 -0.013755
6 2782 -0.013755
6 2785 -0.013755
6 2788 -0.013755
6 2791 -0.013755
6 2794 -0.013755
6 2797 -0.013755
6 2800 -0.013755
6 2803 -0.013755
6 2806 -0.013755
6 2809 -0.013755
6 2812 -0.013755
6 2815 -0.013755
6 2818 -0.013755
6 2821 -0.013755
6 2824 -0.013755
6 2827 -0.013755
6 2830 -0.013755
6 2833 -0.013755
6 2836 -0.013755
6 2839 -0.013755
6 2842 -0.013755
6 2845 -0.013755
6 2848 -0.013755
6 2851 -0.013755
6 2854 -0.013755
6 2857 -0.013755
6 2860 -0.013755
6 2863 -0.013755
6 2866 -0.013755
6 2869 -0.013755
6 2872 -0.013755
6 2875 -0.013755
6 2878 -0.013755
6 2881 -0.013755
6 2884 -0.013755
6 2887 -0.013755
6 2890 -0.013755
6 2893 -0.013755
6 2896 -0.013755
6 2899 -0.013755
6 2902 -0.013755
6 2905 -0.013755
6 2908 -0.013755
6 2911 -0.013755
6 2914 -0.013755
6 2917 -0.013755
6 2920 -0.013755
6 2923 -0.013755
6 2926 -0.013755
6 2929 -0.013755
6 2932 -0.013755
6 2935 -0.013755
6 2938 -0.013755
6 2941 -0.013755
6 2944 -0.013755
6 2947 -0.013755
6 2950 -0.013755
6 2953 -0.013755
6 2956 -0.013755
6 2959 -0.013755
6 2962 -0.013755
6 2965 -0.013755
6 2968 -0.013755
6 2971 -0.013755
6 2974 -0.013755
6 2977 -0.013755
6 2980 -0.013755
6 2983 -0.013755
6 2986 -0.013755
6 2989 -0.013755
6 2992 -0.013755
6 2995 -0.013755
6 2998 -0.013755
6 3001 -0.013755
6 3166 -0.315
6 3167 -0.31
6 3261 -0.0405
6 3265 -0.0345
6 3353 -11.935
6 3355 -0.013755
6 3357 -11.9355
6 3359 -0.013755
6 3362 -0.013755
6 3365 -0.013755
6 3368 -0.013755
6 3371 -0.013755
6 3374 -0.013755
6 3377 -0.013755
6 3380 -0.013755
6 3383 -0.013755
6 3386 -0.013755
6 3389 -0.013755
6 3392 -0.013755
6 3395 -0.013755
6 3398 -0.013755
6 3401 -0.013755
6 3404 -0.013755
6 3407 -0.013755
6 3410 -0.013755
6 3413 -0.013755
6 3416 -0.013755
6 3419 -0.013755
6 3422 -0.013755
6 3425 -0.013755
6 3428 -0.013755
6 3431 -0.013755
6 3434 -0.013755
6 3437 -0.013755
6 3440 -0.013755
6 3443 -0.013755
6 3446 -0.013755
6 3449 -0.013755
6 3452 -0.013755
6 3455 -0.013755
6 3458 -0.013755
6 3461 -0.013755
6 3464 -0.013755
6 3467 -0.013755
6 3470 -0.013755
6 3473 -0.013755
6 3476 -0.013755
6 3479 -0.013755
6 3482 -0.013755
6 3485 -0.013755
6 3488 -0.013755
6 3491 -0.013755
6 3494 -0.013755
6 3497 -0.013755
6 3500 -0.013755
6 3503 -0.013755
6 3506 -0.013755
6 3509 -0.013755
6 3512 -0.013755
6 3515 -0.013755
6 3518 -0.013755
6 3521 -0.013755
6 3524 -0.013755
6 3527 -0.013755
6 3530 -0.013755
6 3533 -0.013755
6 3536 -0.013755
6 3539 -0.013755
6 3542 -0.013755
6 3545 -0.013755
6 3548 -0.013755
6 3551 -0.013755
6 3554 -0.013755
6 3557 -0.013755
6 3560 -0.013755
6 3563 -0.013755
6 3566 -0.013755
6 3569 -0.013755
6 3572 -0.013755
6 3575 -0.013755
6 3578 -0.013755
6 3581 -0.013755
6 3584 -0.013755
6 3587 -0.013755
6 3590 -0.013755
6 3593 -0.013755
6 3596 -0.013755
6 3599 -0.013755
6 3602 -0.013755
6 3605 -0.013755
6 3608 -0.013755
6 3611 -0.013755
6 3614 -0.013755
6 3617 -0.013755
6 3620 -0.013755
6 3623 -0.013755
6 3788 -0.315
6 3789 -0.31
6 3883 -0.0405
6 3887 -0.0345
6 3975 -11.935
6 3977 -0.013755
6 3979 -11.9355
6 3981 -0.013755
6 3984 -0.013755
6 3987 -0.013755
6 3990 -0.013755
6 3993 -0.013755
6 3996 -0.013755
6 3999 -0.013755
6 4002 -0.013755
6 4005 -0.013755
6 4008 -0.013755
6 4011 -0.013755
6 4014 -0.013755
6 4017 -0.013755
6 4020 -0.013755
6 4023 -0.013755
6 4026 -0.013755
6 4029 -0.013755
6 4032 -0.013755
6 4035 -0.013755
6 4038 -0.013755
6 4041 -0.013755
6 4044 -0.013755
6 4047 -0.013755
6 4050 -0.013755
6 4053 -0.013755
6 4056 -0.013755
6 4059 -0.013755
6 4062 -0.013755
6 4065 -0.013755
6 4068 -0.013755
6 4071 -0.013755
6 4074 -0.013755
6 4077 -0.013755
6 4080 -0.013755
6 4083 -0.013755
6 4086 -0.013755
6 4089 -0.013755
6 4092 -0.013755
6 4095 -0.013755
6 4098 -0.013755
6 4101 -0.013755
6 4104 -0.013755
6 4107 -0.013755
6 4110 -0.013755
6 4113 -0.013755
6 4116 -0.013755
6 4119 -0.013755
6 4122 -0.013755
6 4125 -0.013755
6 4128 -0.013755
6 4131 -0.013755
6 4134 -0.013755
6 4137 -0.013755
6 4140 -0.013755
6 4143 -0.013755
6 4146 -0.013755
6 4149 -0.013755
6 4152 -0.013755
6 4155 -0.013755
6 4158 -0.013755
6 4161 -0.013755
6 4164 -0.013755
6 4167 -0.013755
6 4170 -0.013755
6 4173 -0.013755
6 4176 -0.013755
6 4179 -0.013755
6 4182 -0.013755
6 4185 -0.013755
6 4188 -0.013755
6 4191 -0.013755
6 4194 -0.013755
6 4197 -0.013755
6 4200 -0.013755
6 4203 -0.013755
6 4206 -0.013755
6 4209 -0.013755
6 4212 -0.013755
6 4215 -0.013755
6 4218 -0.013755
6 4221 -0.013755
6 4224 -0.013755
6 4227 -0.013755
6 4230 -0.013755
6 4233 -0.013755
6 4236 -0.013755
6 4239 -0.013755
6 4242 -0.013755
6 4245 -0.013755
6 4410 -0.315
6 4411 -0.31
6 4505 -0.0405
6 4509 -0.0345
6 4597 -11.935
6 4599 -0.013755
6 4601 -11.9355
6 4603 -0.013755
6 4606 -0.013755
6 4609 -0.013755
6 4612 -0.013755
6 4615 -0.013755
6 4618 -0.013755
6 4621 -0.013755
6 4624 -0.013755
6 4627 -0.013755
6 4630 -0.013755
6 4633 -0.013755
6 4636 -0.013755
6 4639 -0.013755
6 4642 -0.013755
6 4645 -0.013755
6 4648 -0.013755
6 4651 -0.013755
6 4654 -0.013755
6 4657 -0.013755
6 4660 -0.013755
6 4663 -0.013755
6 4666 -0.013755
6 4669 -0.013755
6 4672 -0.013755
6 4675 -0.013755
6 4678 -0.013755
6 4681 -0.013755
6 4684 -0.013755
6 4687 -0.013755
6 4690 -0.013755
6 4693 -0.013755
6 4696 -0.013755
6 4699 -0.013755
6 4702 -0.013755
6 4705 -0.013755
6 4708 -0.013755
6 4711 -0.013755
6 4714 -0.013755
6 4717 -0.013755
6 4720 -0.013755
6 4723 -0.013755
6 4726 -0.013755
6 4729 -0.013755
6 4732 -0.013755
6 4735 -0.013755
6 4738 -0.013755
6 4741 -0.013755
6 4744 -0.013755
6 4747 -0.013755
6 4750 -0.013755
6 4753 -0.013755
6 4756 -0.013755
6 4759 -0.013755
6 4762 -0.013755
6 4765 -0.013755
6 4768 -0.013755
6 4771 -0.013755
6 4774 -0.013755
6 4777 -0.013755
6 4780 -0.013755
6 4783 -0.013755
6 4786 -0.013755
6 4789 -0.013755
6 4792 -0.013755
6 4795 -0.013755
6 4798 -0.013755
6 4801 -0.013755
6 4804 -0.013755
6 4807 -0.013755
6 4810 -0.013755
6 4813 -0.013755
6 4816 -0.013755
6 4819 -0.013755
6 4822 -0.013755
6 4825 -0.013755
6 4828 -0.013755
6 4831 -0.013755
6 4834 -0.013755
6 4837 -0.013755
6 4840 -0.013755
6 4843 -0.013755
6 4846 -0.013755
6 4849 -0.013755
6 4852 -0.013755
6 4855 -0.013755
6 4858 -0.013755
6 4861 -0.013755
6 4864 -0.013755
6 4867 -0.013755
6 5032 -0.315
6 5033 -0.31
6 5127 -0.0405
6 5131 -0.0345
6 5219 -11.935
6 5221 -0.013755
6 5223 -11.9355
6 5225 -0.013755
6 5228 -0.013755
6 5231 -0.013755
6 5234 -0.013755
6 5237 -0.013755
6 5240 -0.013755
6 5243 -0.013755
6 5246 -0.013755
6 5249 -0.013755
6 5252 -0.013755
6 5255 -0.013755
6 5258 -0.013755
6 5261 -0.013755
6 5264 -0.013755
6 5267 -0.013755
6 5270 -0.013755
6 5273 -0.013755
6 5276 -0.013755
6 5279 -0.013755
6 5282 -0.013755
6 5285 -0.013755
6 5288 -0.013755
6 5291 -0.013755
6 5294 -0.013755
6 5297 -0.013755
6 5300 -0.013755
6 5303 -0.013755
6 5306 -0.013755
6 5309 -0.013755
6 5312 -0.013755
6 5315 -0.013755
6 5318 -0.013755
6 5321 -0.013755
6 5324 -0.013755
6 5327 -0.013755
6 5330 -0.013755
6 5333 -0.013755
6 5336 -0.013755
6 5339 -0.013755
6 5342 -0.013755
6 5345 -0.013755
6 5348 -0.013755
6 5351 -0.013755
6 5354 -0.013755
6 5357 -0.013755
6 5360 -0.013755
6 5363 -0.013755
6 5366 -0.013755
6 5369 -0.013755
6 5372 -0.013755
6 5375 -0.013755
6 5378 -0.013755
6 5381 -0.013755
6 5384 -0.013755
6 5387 -0.013755
6 5390 -0.013755
6 5393 -0.013755
6 5396 -0.013755
6 5399 -0.013755
6 5402 -0.013755
6 5405 -0.013755
6 5408 -0.013755
6 5411 -0.013755
6 5414 -0.013755
6 5417 -0.013755
6 5420 -0.013755
6 5423 -0.013755
6 5426 -0.013755
6 5429 -0.013755
6 5432 -0.013755
6 5435 -0.013755
6 5438 -0.013755
6 5441 -0.013755
6 5444 -0.013755
6 5447 -0.013755
6 5450 -0.013755
6 5453 -0.013755
6 5456 -0.013755
6 5459 -0.013755
6 5462 -0.013755
6 5465 -0.013755
6 5468 -0.013755
6 5471 -0.013755
6 5474 -0.013755
6 5477 -0.013755
6 5480 -0.013755
6 5483 -0.013755
6 5486 -0.013755
6 5489 -0.013755
6 5653 -0.315
6 5654 -0.31
6 5747 -0.0405
6 5751 -0.0345
6 5839 -11.935
6 5841 -0.013755
6 5843 -11.9355
6 5845 -0.013755
6 5848 -0.013755
6 5851 -0.013755
6 5854 -0.013755
6 5857 -0.013755
6 5860 -0.013755
6 5863 -0.013755
6 5866 -0.013755
6 5869 -0.013755
6 5872 -0.013755
6 5875 -0.013755
6 5878 -0.013755
6 5881 -0.013755
6 5884 -0.013755
6 5887 -0.013755
6 5890 -0.013755
6 5893 -0.013755
6 5896 -0.013755
6 5899 -0.013755
6 5902 -0.013755
6 5905 -0.013755
6 5908 -0.013755
6 5911 -0.013755
6 5914 -0.013755
6 5917 -0.013755
6 5920 -0.013755
6 5923 -0.013755
6 5926 -0.013755
6 5929 -0.013755
6 5932 -0.013755
6 5935 -0.013755
6 5938 -0.013755
6 5941 -0.013755
6 5944 -0.013755
6 5947 -0.013755
6 5950 -0.013755
6 5953 -0.013755
6 5956 -0.013755
6 5959 -0.013755
6 5962 -0.013755
6 5965 -0.013755
6 5968 -0.013755
6 5971 -0.013755
6 5974 -0.013755
6 5977 -0.013755
6 5980 -0.013755
6 5983 -0.013755
6 5986 -0.013755
6 5989 -0.013755
6 5992 -0.013755
6 5995 -0.013755
6 5998 -0.013755
6 6001 -0.013755
6 6004 -0.013755
6 6007 -0.013755
6 6010 -0.013755
6 6013 -0.013755
6 6016 -0.013755
6 6019 -0.013755
6 6022 -0.013755
6 6025 -0.013755
6 6028 -0.013755
6 6031 -0.013755
6 6034 -0.013755
6 6037 -0.013755
6 6040 -0.013755
6 6043 -0.013755
6 6046 -0.013755
6 6049 -0.013755
6 6052 -0.013755
6 6055 -0.013755
6 6058 -0.013755
6 6061 -0.013755
6 6064 -0.013755
6 6067 -0.013755
6 6070 -0.013755
6 6073 -0.013755
6 6076 -0.013755
6 6079 -0.013755
6 6082 -0.013755
6 6085 -0.013755
6 6088 -0.013755
6 6091 -0.013755
6 6094 -0.013755
6 6097 -0.013755
6 6100 -0.013755
6 6103 -0.013755
6 6106 -0.013755
6 6109 -0.013755
6 6274 -0.315
6 6275 -0.31
6 6369 -0.0405
6 6373 -0.0345
6 6395 -0.454
6 6399 -0.4565
6 6463 -11.935
6 6465 -0.013755
6 6467 -11.9355
6 6469 -0.013755
6 6472 -0.013755
6 6475 -0.013755
6 6478 -0.013755
6 6481 -0.013755
6 6484 -0.013755
6 6487 -0.013755
6 6490 -0.013755
6 6493 -0.013755
6 6496 -0.013755
6 6499 -0.013755
6 6502 -0.013755
6 6505 -0.013755
6 6508 -0.013755
6 6511 -0.013755
6 6514 -0.013755
6 6517 -0.013755
6 6520 -0.013755
6 6523 -0.013755
6 6526 -0.013755
6 6529 -0.013755
6 6532 -0.013755
6 6535 -0.013755
6 6538 -0.013755
6 6541 -0.013755
6 6544 -0.013755
6 6547 -0.013755
6 6550 -0.013755
6 6553 -0.013755
6 6556 -0.013755
6 6559 -0.013755
6 6562 -0.013755
6 6565 -0.013755
6 6568 -0.013755
6 6571 -0.013755
6 6574 -0.013755
6 6577 -0.013755
6 6580 -0.013755
6 6583 -0.013755
6 6586 -0.013755
6 6589 -0.013755
6 6592 -0.013755
6 6595 -0.013755
6 6598 -0.013755
6 6601 -0.013755
6 6604 -0.013755
6 6607 -0.013755
6 6610 -0.013755
6 6613 -0.013755
6 6616 -0.013755
6 6619 -0.013755
6 6622 -0.013755
6 6625 -0.013755
6 6628 -0.013755
6 6631 -0.013755
6 6634 -0.013755
6 6637 -0.013755
6 6640 -0.013755
6 6643 -0.013755
6 6646 -0.013755
6 6649 -0.013755
6 6652 -0.013755
6 6655 -0.013755
6 6658 -0.013755
6 6661 -0.013755
6 6664 -0.013755
6 6667 -0.013755
6 6670 -0.013755
6 6673 -0.013755
6 6676 -0.013755
6 6679 -0.013755
6 6682 -0.013755
6 6685 -0.013755
6 6688 -0.013755
6 6691 -0.013755
6 6694 -0.013755
6 6697 -0.013755
6 6700 -0.013755
6 6703 -0.013755
6 6706 -0.013755
6 6709 -0.013755
6 6712 -0.013755
6 6715 -0.013755
6 6718 -0.013755
6 6721 -0.013755
6 6724 -0.013755
6 6727 -0.013755
6 6730 -0.013755
6 6733 -0.013755
6 6897 -0.315
6 6898 -0.31
6 6991 -0.0405
6 6995 -0.0345
6 7017 -0.454
6 7021 -0.4565
6 7085 -11.935
6 7087 -0.013755
6 7089 -11.9355
6 7091 -0.013755
6 7094 -0.013755
6 7097 -0.013755
6 7100 -0.013755
6 7103 -0.013755
6 7106 -0.013755
6 7109 -0.013755
6 7112 -0.013755
6 7115 -0.013755
6 7118 -0.013755
6 7121 -0.013755
6 7124 -0.013755
6 7127 -0.013755
6 7130 -0.013755
6 7133 -0.013755
6 7136 -0.013755
6 7139 -0.013755
6 7142 -0.013755
6 7145 -0.013755
6 7148 -0.013755
6 7151 -0.013755
6 7154 -0.013755
6 7157 -0.013755
6 7160 -0.013755
6 7163 -0.013755
6 7166 -0.013755
6 7169 -0.013755
6 7172 -0.013755
6 7175 -0.013755
6 7178 -0.013755
6 7181 -0.013755
6 7184 -0.013755
6 7187 -0.013755
6 7190 -0.013755
6 7193 -0.013755
6 7196 -0.013755
6 7199 -0.013755
6 7202 -0.013755
6 7205 -0.013755
6 7208 -0.013755
6 7211 -0.013755
6 7214 -0.013755
6 7217 -0.013755
6 7220 -0.013755
6 7223 -0.013755
6 7226 -0.013755
6 7229 -0.013755
6 7232 -0.013755
6 7235 -0.013755
6 7238 -0.013755
6 7241 -0.013755
6 7244 -0.013755
6 7247 -0.013755
6 7250 -0.013755
6 7253 -0.013755
6 7256 -0.013755
6 7259 -0.013755
6 7262 -0.013755
6 7265 -0.013755
6 7268 -0.013755
6 7271 -0.013755
6 7274 -0.013755
6 7277 -0.013755
6 7280 -0.013755
6 7283 -0.013755
6 7286 -0.013755
6 7289 -0.013755
6 7292 -0.013755
6 7295 -0.013755
6 7298 -0.013755
6 7301 -0.013755
6 7304 -0.013755
6 7307 -0.013755
6 7310 -0.013755
6 7313 -0.013755
6 7316 -0.013755
6 7319 -0.013755
6 7322 -0.013755
6 7325 -0.013755
6 7328 -0.013755
6 7331 -0.013755
6 7334 -0.013755
6 7337 -0.013755
6 7340 -0.013755
6 7343 -0.013755
6 7346 -0.013755
6 7349 -0.013755
6 7352 -0.013755
6 7355 -0.013755
6 7597 1.0
7 1 -752.557627
7 2 -252.185
7 3 -80.203142
7 4 -27.7895
7 5 -0.347
7 6 -0.4565
7 7 1183.136469
7 8 -2.304
7 5655 -0.4625
7 5656 -0.531
7 5751 -2.8445
7 5776 -1.754386
7 5782 -2.702703
7 5788 -2.702703
7 5794 -2.702703
7 5800 -2.702703
7 5806 -2.702703
7 5812 -2.702703
7 5818 -2.702703
7 5824 -2.702703
7 5830 -2.702703
7 5836 -2.702703
7 6186 -3.162165
7 6192 -3.162165
7 6198 -3.162165
7 6204 -3.162165
7 6210 -3.162165
7 6216 -3.162165
7 6222 -3.162165
7 6228 -3.162165
7 6234 -3.162165
7 6240 -3.162165
7 6246 -2.052634
8 1 -755.006211
8 2 -250.3055
8 3 -80.102342
8 4 -27.4455
8 5 -0.347
8 6 -0.454
8 7 -2.304
8 8 1183.260753
8 5655 -0.4625
8 5656 -0.531
8 5747 -2.847
8 5773 -1.754386
8 5779 -2.702703
8 5785 -2.702703
8 5791 -2.702703
8 5797 -2.702703
8 5803 -2.702703
8 5809 -2.702703
8 5815 -2.702703
8 5821 -2.702703
8 5827 -2.702703
8 5833 -2.702703
8 6183 -3.162165
8 6189 -3.162165
8 6195 -3.162165
8 6201 -3.162165
8 6207 -3.162165
8 6213 -3.162165
8 6219 -3.162165
8 6225 -3.162165
8 6231 -3.162165
8 6237 -3.162165
8 6243 -2.052634
9 1 -752.310192
9 2 -252.185
9 3 -80.197521
9 4 -27.7895
9 5 -0.347
9 6 -0.4565
9 9 1182.883413
9 10 -2.304
9 5035 -0.4625
9 5036 -0.531
9 5131 -2.8445
9 5156 -1.754386
9 5162 -2.702703
9 5168 -2.702703
9 5174 -2.702703
9 5180 -2.702703
9 5186 -2.702703
9 5192 -2.702703
9 5198 -2.702703
9 5204 -2.702703
9 5210 -2.702703
9 5216 -2.702703
9 5566 -3.162165
9 5572 -3.162165
9 5578 -3.162165
9 5584 -3.162165
9 5590 -3.162165
9 5596 -3.162165
9 5602 -3.162165
9 5608 -3.162165
9 5614 -3.162165
9 5620 -3.162165
9 5626 -2.052634
10 1 -754.779726
10 2 -250.3055
10 3 -79.495369
10 4 -27.4455
10 5 -0.347
10 6 -0.454
10 9 -2.304
10 10 1182.427294
10 5035 -0.4625
10 5036 -0.531
10 5127 -2.847
10 5153 -1.754386
10 5159 -2.702703
10 5165 -2.702703
10 5171 -2.702703
10 5177 -2.702703
10 5183 -2.702703
10 5189 -2.702703
10 5195 -2.702703
10 5201 -2.702703
10 5207 -2.702703
10 5213 -2.702703
10 5563 -3.162165
10 5569 -3.162165
10 5575 -3.162165
10 5581 -3.162165
10 5587 -3.162165
10 5593 -3.162165
10 5599 -3.162165
10 5605 -3.162165
10 5611 -3.162165
10 5617 -3.162165
10 5623 -2.052634
11 1 -746.844189
11 2 -252.185
11 3 -80.190507
11 4 -27.7895
11 5 -0.347
11 6 -0.4565
11 11 1177.410396
11 12 -2.304
11 4413 -0.4625
11 4414 -0.531
11 4509 -2.8445
11 4534 -1.754386
11 4540 -2.702703
11 4546 -2.702703
11 4552 -2.702703
11 4558 -2.702703
11 4564 -2.702703
11 4570 -2.702703
11 4576 -2.702703
11 4582 -2.702703
11 4588 -2.702703
11 4594 -2.702703
11 4944 -3.162165
11 4950 -3.162165
11 4956 -3.162165
11 4962 -3.162165
11 4968 -3.162165
11 4974 -3.162165
11 4980 -3.162165
11 4986 -3.162165
11 4992 -3.162165
11 4998 -3.162165
11 5004 -2.052634
12 1 -754.607128
12 2 -250.3055
12 3 -77.015062
12 4 -27.4455
12 5 -0.347
12 6 -0.454
12 11 -2.304
12 12 1179.774391
12 4413 -0.4625
12 4414 -0.531
12 4505 -2.847
12 4531 -1.754386
12 4537 -2.702703
12 4543 -2.702703
12 4549 -2.702703
12 4555 -2.702703
12 4561 -2.702703
12 4567 -2.702703
12 4573 -2.702703
12 4579 -2.702703
12 4585 -2.702703
12 4591 -2.702703
12 4941 -3.162165
12 4947 -3.162165
12 4953 -3.162165
12 4959 -3.162165
12 4965 -3.162165
12 4971 -3.162165
12 4977 -3.162165
12 4983 -3.162165
12 4989 -3.162165
12 4995 -3.162165
12 5001 -2.052634
13 1 -706.596881
13 2 -252.185
13 3 -80.183997
13 4 -27.7895
13 5 -0.347
13 6 -0.4565
13 13 1137.156577
13 14 -2.304
13 3791 -0.4625
13 3792 -0.531
13 3887 -2.8445
13 3912 -1.754386
13 3918 -2.702703
13 3924 -2.702703
13 3930 -2.702703
13 3936 -2.702703
13 3942 -2.702703
13 3948 -2.702703
13 3954 -2.702703
13 3960 -2.702703
13 3966 -2.702703
13 3972 -2.702703
13 4322 -3.162165
13 4328 -3.162165
13 4334 -3.162165
13 4340 -3.162165
13 4346 -3.162165
13 4352 -3.162165
13 4358 -3.162165
13 4364 -3.162165
13 4370 -3.162165
13 4376 -3.162165
13 4382 -2.052634
14 1 -754.472283
14 2 -250.3055
14 3 -71.193811
14 4 -27.4455
14 5 -0.347
14 6 -0.454
14 13 -2.304
14 14 1173.818294
14 3791 -0.4625
14 3792 -0.531
14 3883 -2.847
14 3909 -1.754386
14 3915 -2.702703
14 3921 -2.702703
14 3927 -2.702703
14 3933 -2.702703
14 3939 -2.702703
14 3945 -2.702703
14 3951 -2.702703
14 3957 -2.702703
14 3963 -2.702703
14 3969 -2.702703
14 4319 -3.162165
14 4325 -3.162165
14 4331 -3.162165
14 4337 -3.162165
14 4343 -3.162165
14 4349 -3.162165
14 4355 -3.162165
14 4361 -3.162165
14 4367 -3.162165
14 4373 -3.162165
14 4379 -2.052634
15 1 -576.38184
15 2 -252.185
15 3 -80.178482
15 4 -27.7895
15 5 -0.347
15 6 -0.4565
15 15 1006.936022
15 16 -2.304
15 3169 -0.4625
15 3170 -0.531
15 3265 -2.8445
15 3290 -1.754386
15 3296 -2.702703
15 3302 -2.702703
15 3308 -2.702703
15 3314 -2.702703
15 3320 -2.702703
15 3326 -2.702703
15 3332 -2.702703
15 3338 -2.702703
15 3344 -2.702703
15 3350 -2.702703
15 3700 -3.162165
15 3706 -3.162165
15 3712 -3.162165
15 3718 -3.162165
15 3724 -3.162165
15 3730 -3.162165
15 3736 -3.162165
15 3742 -3.162165
15 3748 -3.162165
15 3754 -3.162165
15 3760 -2.052634
16 1 -754.385602
16 2 -250.3055
16 3 -65.743508
16 4 -27.4455
16 5 -0.347
16 6 -0.454
16 15 -2.304
16 16 1168.28131
16 3169 -0.4625
16 3170 -0.531
16 3261 -2.847
16 3287 -1.754386
16 3293 -2.702703
16 3299 -2.702703
16 3305 -2.702703
16 3311 -2.702703
16 3317 -2.702703
16 3323 -2.702703
16 3329 -2.702703
16 3335 -2.702703
16 3341 -2.702703
16 3347 -2.702703
16 3697 -3.162165
16 3703 -3.162165
16 3709 -3.162165
16 3715 -3.162165
16 3721 -3.162165
16 3727 -3.162165
16 3733 -3.162165
16 3739 -3.162165
16 3745 -3.162165
16 3751 -3.162165
16 3757 -2.052634
17 1 -470.13212
17 2 -252.185
17 3 -80.175111
17 4 -27.7895
17 5 -0.347
17 6 -0.4565
17 17 900.682931
17 18 -2.304
17 2547 -0.4625
17 2548 -0.531
17 2643 -2.8445
17 2668 -1.754386
17 2674 -2.702703
17 2680 -2.702703
17 2686 -2.702703
17 2692 -2.702703
17 2698 -2.702703
17 2704 -2.702703
17 2710 -2.702703
17 2716 -2.702703
17 2722 -2.702703
17 2728 -2.702703
17 3078 -3.162165
17 3084 -3.162165
17 3090 -3.162165
17 3096 -3.162165
17 3102 -3.162165
17 3108 -3.162165
17 3114 -3.162165
17 3120 -3.162165
17 3126 -3.162165
17 3132 -3.162165
17 3138 -2.052634
18 1 -754.355263
18 2 -250.3055
18 3 -63.899072
18 4 -27.4455
18 5 -0.347
18 6 -0.454
18 17 -2.304
18 18 1166.406535
18 2547 -0.4625
18 2548 -0.531
18 2639 -2.847
18 2665 -1.754386
18 2671 -2.702703
18 2677 -2.702703
18 2683 -2.702703
18 2689 -2.702703
18 2695 -2.702703
18 2701 -2.702703
18 2707 -2.702703
18 2713 -2.702703
18 2719 -2.702703
18 2725 -2.702703
18 3075 -3.162165
18 3081 -3.162165
18 3087 -3.162165
18 3093 -3.162165
18 3099 -3.162165
18 3105 -3.162165
18 3111 -3.162165
18 3117 -3.162165
18 3123 -3.162165
18 3129 -3.162165
18 3135 -2.052634
19 19 5.385965
19 2538 -4.385965
19 7592 1.0
20 20 2.782531
20 25 -1.782531
20 7592 -1.0
21 1 -24.01
21 2 -25.9225
21 4 -2.7755
21 5 -1.252
21 6 -2.069
21 21 346.442816
21 24 -2.040816
21 25 -11.375
21 29 -275.998
21 7591 1.0
22 22 3.040816
22 27 -2.040816
22 7591 -1.0
23 23 5.385965
23 2537 -4.385965
23 7590 1.0
24 21 -2.040816
24 24 3.040816
24 7590 -1.0
25 1 -21.254
25 2 -35.1315
25 4 -11.27
25 5 -1.3995
25 6 -5.292
25 20 -1.782531
25 21 -11.375
25 25 337.080031
25 29 -248.5755
25 7589 1.0
26 26 2.782531
26 28 -1.782531
26 7589 -1.0
27 22 -2.040816
27 27 3.040816
27 7515 1.0
28 26 -1.782531
28 28 2.782531
28 7518 1.0
29 1 -766.175
29 2 -1822.6551
29 4 -391.6925
29 5 -55.5965
29 6 -40.5525
29 21 -275.998
29 25 -248.5755
29 29 3602.2451
30 30 5.385965
30 1916 -4.385965
30 7588 1.0
31 31 2.5625
31 36 -1.5625
31 7588 -1.0
32 1 -19.351
32 2 -10.4785
32 4 -2.7755
32 5 -1.252
32 32 256.017024
32 35 -2.439024
32 40 -218.721
32 7587 1.0
33 33 3.439024
33 38 -2.439024
33 7587 -1.0
34 34 5.385965
34 1915 -4.385965
34 7586 1.0
35 32 -2.439024
35 35 3.439024
35 7586 -1.0
36 1 -29.0075
36 2 -20.7085
36 4 -2.7755
36 5 -1.252
36 6 -4.1375
36 31 -1.5625
36 36 394.8325
36 40 -334.389
36 7585 1.0
37 37 2.5625
37 39 -1.5625
37 7585 -1.0
38 33 -2.439024
38 38 3.439024
38 7530 1.0
39 37 -1.5625
39 39 2.5625
39 7527 1.0
40 1 -767.7
40 2 -1850.8651
40 4 -398.0115
40 5 -56.465
40 6 -42.3995
40 32 -218.721
40 36 -334.389
40 40 3669.5511
41 41 5.385965
41 42 -4.385965
41 7583 -1.0
42 41 -4.385965
42 42 5.385965
42 7578 1.0
43 43 5.385965
43 44 -4.385965
43 7582 -1.0
44 43 -4.385965
44 44 5.385965
44 7575 1.0
45 45 5.385965
45 46 -4.385965
45 7581 -1.0
46 1 -16.8765
46 2 -9.244
46 4 -1.0705
46 5 -2.0275
46 45 -4.385965
46 46 155.606038
46 51 -34.3644
46 53 -57.346
46 548 -0.091743
46 551 -0.091743
46 649 -0.11236
46 651 -0.11236
46 653 -0.11236
46 661 -1.020408
46 663 -27.7502
47 47 5.385965
47 48 -4.385965
47 7584 -1.0
48 1 -16.882
48 2 -9.139
48 4 -1.0705
48 5 -2.094
48 47 -4.385965
48 48 155.555538
48 50 -34.3639
48 54 -57.329
48 554 -0.091743
48 557 -0.091743
48 650 -0.11236
48 652 -0.11236
48 654 -0.11236
48 664 -1.020408
48 666 -27.7502
49 49 5.385965
49 6267 -4.385965
49 7584 1.0
50 1 -41.117
50 2 -16.5255
50 4 -25.0715
50 5 -2.03
50 6 -0.315
50 48 -34.3639
50 50 256.827596
50 51 -12.9405
50 54 -63.223
50 56 -0.045872
50 58 -0.789478
50 62 -0.045872
50 64 -1.216214
50 68 -0.045872
50 70 -1.216214
50 74 -0.045872
50 76 -1.216214
50 80 -0.045872
50 82 -1.216214
50 86 -0.045872
50 88 -1.216214
50 92 -0.045872
50 94 -1.216214
50 98 -0.045872
50 100 -1.216214
50 104 -0.045872
50 106 -1.216214
50 110 -0.045872
50 112 -1.216214
50 116 -0.045872
50 118 -1.216214
50 122 -0.045872
50 124 -1.216214
50 128 -0.045872
50 130 -1.216214
50 134 -0.045872
50 136 -1.216214
50 140 -0.045872
50 142 -1.216214
50 149 -1.522
50 239 -0.4245
50 243 -2.8285
50 512 -0.045872
50 514 -1.216214
50 518 -0.045872
50 520 -1.216214
50 524 -0.045872
50 526 -1.216214
50 530 -0.045872
50 532 -1.216214
50 536 -0.045872
50 538 -1.216214
50 542 -0.045872
50 544 -1.216214
50 553 -0.608106
50 556 -0.608106
50 563 -0.021413
50 569 -0.021413
50 575 -0.021413
50 581 -0.021413
50 656 -0.11236
50 658 -0.11236
50 660 -0.11236
50 665 -27.7502
50 7579 1.0
50 7583 1.0
51 1 -41.1965
51 2 -16.6505
51 4 -25.0385
51 5 -1.968
51 6 -0.31
51 46 -34.3644
51 50 -12.9405
51 51 256.913596
51 53 -63.2005
51 55 -0.789478
51 59 -0.045872
51 61 -1.216214
51 65 -0.045872
51 67 -1.216214
51 71 -0.045872
51 73 -1.216214
51 77 -0.045872
51 79 -1.216214
51 83 -0.045872
51 85 -1.216214
51 89 -0.045872
51 91 -1.216214
51 95 -0.045872
51 97 -1.216214
51 101 -0.045872
51 103 -1.216214
51 107 -0.045872
51 109 -1.216214
51 113 -0.045872
51 115 -1.216214
51 119 -0.045872
51 121 -1.216214
51 125 -0.045872
51 127 -1.216214
51 131 -0.045872
51 133 -1.216214
51 137 -0.045872
51 139 -1.216214
51 143 -0.045872
51 145 -1.522
51 239 -2.832
51 243 -0.4245
51 511 -1.216214
51 515 -0.045872
51 517 -1.216214
51 521 -0.045872
51 523 -1.216214
51 527 -0.045872
51 529 -1.216214
51 533 -0.045872
51 535 -1.216214
51 539 -0.045872
51 541 -1.216214
51 545 -0.045872
51 547 -0.608106
51 550 -0.608106
51 560 -0.021413
51 566 -0.021413
51 572 -0.021413
51 578 -0.021413
51 655 -0.11236
51 657 -0.11236
51 659 -0.11236
51 662 -27.7502
51 7580 1.0
51 7582 1.0
52 52 5.385965
52 6268 -4.385965
52 7581 1.0
53 1 -132.8115
53 2 -194.2496
53 4 -52.4615
53 5 -55.2875
53 46 -57.346
53 51 -63.2005
53 53 557.2816
53 171 -0.4625
53 175 -0.4625
54 1 -132.228
54 2 -197.5526
54 4 -52.4615
54 5 -55.5525
54 48 -57.329
54 50 -63.223
54 54 560.4086
54 171 -0.531
54 175 -0.531
55 4 -2.087723
55 51 -0.789478
55 55 5.460474
55 56 -2.475773
55 57 0.8925
56 4 -0.336004
56 50 -0.045872
56 55 -1.60121
56 56 6.760722
56 57 -3.777636
57 4 -2.933896
57 55 -0.077478
57 56 -3.028258
57 57 7.039632
58 4 -2.266163
58 50 -0.789478
58 58 5.874642
58 59 -2.725659
58 60 0.906658
59 4 -0.292367
59 51 -0.045872
59 58 -1.853636
59 59 7.011088
59 60 -3.819214
60 4 -2.945693
60 58 -0.056502
60 59 -3.052649
60 60 7.054843
61 4 -1.284989
61 51 -1.216214
61 61 5.084484
61 62 -2.475782
61 63 0.8925
62 4 -0.336003
62 50 -0.045872
62 61 -1.601219
62 62 6.760731
62 63 -3.777637
63 4 -2.933897
63 61 -0.077478
63 62 -3.028258
63 63 7.039633
64 4 -1.39665
64 50 -1.216214
64 64 5.431812
64 65 -2.725605
64 66 0.906655
65 4 -0.292377
65 51 -0.045872
65 64 -1.853574
65 65 7.011032
65 66 -3.81921
66 4 -2.945689
66 64 -0.056519
66 65 -3.052633
66 66 7.054841
67 4 -1.284989
67 51 -1.216214
67 67 5.084484
67 68 -2.475782
67 69 0.8925
68 4 -0.336003
68 50 -0.045872
68 67 -1.601219
68 68 6.760731
68 69 -3.777637
69 4 -2.933897
69 67 -0.077478
69 68 -3.028258
69 69 7.039633
70 4 -1.39665
70 50 -1.216214
70 70 5.431812
70 71 -2.725605
70 72 0.906655
71 4 -0.292377
71 51 -0.045872
71 70 -1.853574
71 71 7.011032
71 72 -3.81921
72 4 -2.945689
72 70 -0.056519
72 71 -3.052633
72 72 7.054841
73 4 -1.284989
73 51 -1.216214
73 73 5.084484
73 74 -2.475782
73 75 0.8925
74 4 -0.336003
74 50 -0.045872
74 73 -1.601219
74 74 6.760731
74 75 -3.777637
75 4 -2.933897
75 73 -0.077478
75 74 -3.028258
75 75 7.039633
76 4 -1.39665
76 50 -1.216214
76 76 5.431812
76 77 -2.725605
76 78 0.906655
77 4 -0.292377
77 51 -0.045872
77 76 -1.853574
77 77 7.011032
77 78 -3.81921
78 4 -2.945689
78 76 -0.056519
78 77 -3.052633
78 78 7.054841
79 4 -1.284989
79 51 -1.216214
79 79 5.084484
79 80 -2.475782
79 81 0.8925
80 4 -0.336003
80 50 -0.045872
80 79 -1.601219
80 80 6.760731
80 81 -3.777637
81 4 -2.933897
81 79 -0.077478
81 80 -3.028258
81 81 7.039633
82 4 -1.39665
82 50 -1.216214
82 82 5.431812
82 83 -2.725605
82 84 0.906655
83 4 -0.292377
83 51 -0.045872
83 82 -1.853574
83 83 7.011032
83 84 -3.81921
84 4 -2.945689
84 82 -0.056519
84 83 -3.052633
84 84 7.054841
85 4 -1.284989
85 51 -1.216214
85 85 5.084484
85 86 -2.475782
85 87 0.8925
86 4 -0.336003
86 50 -0.045872
86 85 -1.601219
86 86 6.760731
86 87 -3.777637
87 4 -2.933897
87 85 -0.077478
87 86 -3.028258
87 87 7.039633
88 4 -1.39665
88 50 -1.216214
88 88 5.431812
88 89 -2.725605
88 90 0.906655
89 4 -0.292377
89 51 -0.045872
89 88 -1.853574
89 89 7.011032
89 90 -3.81921
90 4 -2.945689
90 88 -0.056519
90 89 -3.052633
90 90 7.054841
91 4 -1.284989
91 51 -1.216214
91 91 5.084484
91 92 -2.475782
91 93 0.8925
92 4 -0.336003
92 50 -0.045872
92 91 -1.601219
92 92 6.760731
92 93 -3.777637
93 4 -2.933897
93 91 -0.077478
93 92 -3.028258
93 93 7.039633
94 4 -1.39665
94 50 -1.216214
94 94 5.431812
94 95 -2.725605
94 96 0.906655
95 4 -0.292377
95 51 -0.045872
95 94 -1.853574
95 95 7.011032
95 96 -3.81921
96 4 -2.945689
96 94 -0.056519
96 95 -3.052633
96 96 7.054841
97 4 -1.284989
97 51 -1.216214
97 97 5.084484
97 98 -2.475782
97 99 0.8925
98 4 -0.336003
98 50 -0.045872
98 97 -1.601219
98 98 6.760731
98 99 -3.777637
99 4 -2.933897
99 97 -0.077478
99 98 -3.028258
99 99 7.039633
100 4 -1.39665
100 50 -1.216214
100 100 5.431812
100 101 -2.725605
100 102 0.906655
101 4 -0.292377
101 51 -0.045872
101 100 -1.853574
101 101 7.011032
101 102 -3.81921
102 4 -2.945689
102 100 -0.056519
102 101 -3.052633
102 102 7.054841
103 4 -1.284989
103 51 -1.216214
103 103 5.084484
103 104 -2.475782
103 105 0.8925
104 4 -0.336003
104 50 -0.045872
104 103 -1.601219
104 104 6.760731
104 105 -3.777637
105 4 -2.933897
105 103 -0.077478
105 104 -3.028258
105 105 7.039633
106 4 -1.39665
106 50 -1.216214
106 106 5.431812
106 107 -2.725605
106 108 0.906655
107 4 -0.292377
107 51 -0.045872
107 106 -1.853574
107 107 7.011032
107 108 -3.81921
108 4 -2.945689
108 106 -0.056519
108 107 -3.052633
108 108 7.054841
109 4 -1.284989
109 51 -1.216214
109 109 5.084484
109 110 -2.475782
109 111 0.8925
110 4 -0.336003
110 50 -0.045872
110 109 -1.601219
110 110 6.760731
110 111 -3.777637
111 4 -2.933897
111 109 -0.077478
111 110 -3.028258
111 111 7.039633
112 4 -1.39665
112 50 -1.216214
112 112 5.431812
112 113 -2.725605
112 114 0.906655
113 4 -0.292377
113 51 -0.045872
113 112 -1.853574
113 113 7.011032
113 114 -3.81921
114 4 -2.945689
114 112 -0.056519
114 113 -3.052633
114 114 7.054841
115 4 -1.284989
115 51 -1.216214
115 115 5.084484
115 116 -2.475782
115 117 0.8925
116 4 -0.336003
116 50 -0.045872
116 115 -1.601219
116 116 6.760731
116 117 -3.777637
117 4 -2.933897
117 115 -0.077478
117 116 -3.028258
117 117 7.039633
118 4 -1.39665
118 50 -1.216214
118 118 5.431812
118 119 -2.725605
118 120 0.906655
119 4 -0.292377
119 51 -0.045872
119 118 -1.853574
119 119 7.011032
119 120 -3.81921
120 4 -2.945689
120 118 -0.056519
120 119 -3.052633
120 120 7.054841
121 4 -1.284989
121 51 -1.216214
121 121 5.084484
121 122 -2.475782
121 123 0.8925
122 4 -0.336003
122 50 -0.045872
122 121 -1.601219
122 122 6.760731
122 123 -3.777637
123 4 -2.933897
123 121 -0.077478
123 122 -3.028258
123 123 7.039633
124 4 -1.39665
124 50 -1.216214
124 124 5.431812
124 125 -2.725605
124 126 0.906655
125 4 -0.292377
125 51 -0.045872
125 124 -1.853574
125 125 7.011032
125 126 -3.81921
126 4 -2.945689
126 124 -0.056519
126 125 -3.052633
126 126 7.054841
127 4 -1.284989
127 51 -1.216214
127 127 5.084484
127 128 -2.475782
127 129 0.8925
128 4 -0.336003
128 50 -0.045872
128 127 -1.601219
128 128 6.760731
128 129 -3.777637
129 4 -2.933897
129 127 -0.077478
129 128 -3.028258
129 129 7.039633
130 4 -1.39665
130 50 -1.216214
130 130 5.431812
130 131 -2.725605
130 132 0.906655
131 4 -0.292377
131 51 -0.045872
131 130 -1.853574
131 131 7.011032
131 132 -3.81921
132 4 -2.945689
132 130 -0.056519
132 131 -3.052633
132 132 7.054841
133 4 -1.284989
133 51 -1.216214
133 133 5.084484
133 134 -2.475782
133 135 0.8925
134 4 -0.336003
134 50 -0.045872
134 133 -1.601219
134 134 6.760731
134 135 -3.777637
135 4 -2.933897
135 133 -0.077478
135 134 -3.028258
135 135 7.039633
136 4 -1.39665
136 50 -1.216214
136 136 5.431812
136 137 -2.725605
136 138 0.906655
137 4 -0.292377
137 51 -0.045872
137 136 -1.853574
137 137 7.011032
137 138 -3.81921
138 4 -2.945689
138 136 -0.056519
138 137 -3.052633
138 138 7.054841
139 4 -1.284988
139 51 -1.216214
139 139 5.084483
139 140 -2.475781
139 141 0.892498
140 4 -0.336001
140 50 -0.045872
140 139 -1.601217
140 140 6.760727
140 141 -3.777637
141 4 -3.570898
141 139 -0.077479
141 140 -3.028256
141 141 7.676632
142 4 -1.396649
142 50 -1.216214
142 142 5.431811
142 143 -2.725605
142 144 0.906656
143 4 -0.292375
143 51 -0.045872
143 142 -1.853572
143 143 7.011031
143 144 -3.819212
144 4 -3.582698
144 142 -0.05652
144 143 -3.052633
144 144 7.691851
145 1 -17.2055
145 2 -19.5265
145 4 -5.6965
145 6 -0.0405
145 51 -1.522
145 145 68.59008
145 146 -2.297298
145 153 -2.297298
145 159 -2.297298
145 165 -2.297298
145 171 -2.847
145 559 -2.837837
145 565 -2.837837
145 571 -2.837837
145 577 -2.837837
145 584 -0.019231
145 590 -0.019231
145 596 -0.019231
145 602 -0.019231
145 608 -0.019231
145 614 -0.019231
145 620 -0.019231
145 626 -0.019231
145 632 -0.019231
145 638 -0.019231
145 644 -0.019231
146 4 -2.956654
146 145 -2.297298
146 146 11.551768
146 147 -6.691499
146 148 1.393683
147 2 -0.026455
147 4 -0.432977
147 146 -5.946027
147 147 14.471145
147 148 -7.065686
148 4 -6.651454
148 146 0.883847
148 147 -6.711443
148 148 13.47905
149 1 -17.185
149 2 -19.5575
149 4 -5.6545
149 6 -0.0345
149 50 -1.522
149 149 68.55008
149 150 -2.297298
149 156 -2.297298
149 162 -2.297298
149 168 -2.297298
149 175 -2.8445
149 562 -2.837837
149 568 -2.837837
149 574 -2.837837
149 580 -2.837837
149 587 -0.019231
149 593 -0.019231
149 599 -0.019231
149 605 -0.019231
149 611 -0.019231
149 617 -0.019231
149 623 -0.019231
149 629 -0.019231
149 635 -0.019231
149 641 -0.019231
149 647 -0.019231
150 4 -2.217525
150 149 -2.297298
150 150 8.873417
150 151 -5.336992
150 152 1.978397
151 2 -0.026455
151 4 -0.633533
151 150 -3.475899
151 151 12.957577
151 152 -7.82169
152 4 -6.535089
152 150 -0.097304
152 151 -6.150643
152 152 13.783036
153 4 -2.956652
153 145 -2.297298
153 153 11.551731
153 154 -6.691484
153 155 1.393703
154 2 -0.026455
154 4 -0.432989
154 153 -5.945968
154 154 14.471126
154 155 -7.065715
155 4 -5.544288
155 153 0.883817
155 154 -6.711433
155 155 12.371904
156 4 -2.217536
156 149 -2.297298
156 156 8.873419
156 157 -5.336989
156 158 1.978404
157 2 -0.026455
157 4 -0.63353
157 156 -3.475905
157 157 12.957587
157 158 -7.821696
158 4 -5.428186
158 156 -0.097299
158 157 -6.150642
158 158 12.676127
159 4 -2.956652
159 145 -2.297298
159 159 11.551731
159 160 -6.691484
159 161 1.393703
160 2 -0.026455
160 4 -0.432989
160 159 -5.945968
160 160 14.471126
160 161 -7.065715
161 4 -5.544288
161 159 0.883817
161 160 -6.711433
161 161 12.371904
162 4 -2.217536
162 149 -2.297298
162 162 8.873419
162 163 -5.336989
162 164 1.978404
163 2 -0.026455
163 4 -0.63353
163 162 -3.475905
163 163 12.957587
163 164 -7.821696
164 4 -5.428186
164 162 -0.097299
164 163 -6.150642
164 164 12.676127
165 4 -2.956654
165 145 -2.297298
165 165 11.551768
165 166 -6.691499
165 167 1.393683
166 2 -0.026455
166 4 -0.432977
166 165 -5.946027
166 166 14.471145
166 167 -7.065686
167 4 -6.651454
167 165 0.883847
167 166 -6.711443
167 167 13.47905
168 4 -2.217525
168 149 -2.297298
168 168 8.873417
168 169 -5.336992
168 170 1.978397
169 2 -0.026455
169 4 -0.633533
169 168 -3.475899
169 169 12.957577
169 170 -7.82169
170 4 -6.535089
170 168 -0.097304
170 169 -6.150643
170 170 13.783036
171 1 -20.1005
171 2 -250.3055
171 4 -27.4455
171 5 -0.347
171 6 -0.454
171 53 -0.4625
171 54 -0.531
171 145 -2.847
171 171 368.2527
171 172 -1.754386
171 175 -2.304
171 179 -2.702703
171 185 -2.702703
171 191 -2.702703
171 197 -2.702703
171 203 -2.702703
171 209 -2.702703
171 215 -2.702703
171 221 -2.702703
171 227 -2.702703
171 233 -2.702703
171 583 -3.162165
171 589 -3.162165
171 595 -3.162165
171 601 -3.162165
171 607 -3.162165
171 613 -3.162165
171 619 -3.162165
171 625 -3.162165
171 631 -3.162165
171 637 -3.162165
171 643 -2.052634
172 4 -4.161863
172 171 -1.754386
172 172 10.861966
172 173 -6.273646
172 174 2.327929
173 2 -0.022523
173 4 -0.745733
173 172 -4.082702
173 173 15.053934
173 174 -9.202976
174 4 -6.350637
174 172 -0.116092
174 173 -7.23508
174 174 14.70181
175 1 -17.0165
175 2 -252.185
175 4 -27.7895
175 5 -0.347
175 6 -0.4565
175 53 -0.4625
175 54 -0.531
175 149 -2.8445
175 171 -2.304
175 175 367.3922
175 176 -1.754386
175 182 -2.702703
175 188 -2.702703
175 194 -2.702703
175 200 -2.702703
175 206 -2.702703
175 212 -2.702703
175 218 -2.702703
175 224 -2.702703
175 230 -2.702703
175 236 -2.702703
175 586 -3.162165
175 592 -3.162165
175 598 -3.162165
175 604 -3.162165
175 610 -3.162165
175 616 -3.162165
175 622 -3.162165
175 628 -3.162165
175 634 -3.162165
175 640 -3.162165
175 646 -2.052634
176 4 -5.806848
176 175 -1.754386
176 176 14.986735
176 177 -7.929302
176 178 1.503801
177 2 -0.022523
177 4 -0.480858
177 176 -7.331458
177 177 16.915182
177 178 -8.080343
178 4 -6.516453
178 176 1.227741
178 177 -7.934572
178 178 14.223284
179 4 -2.579825
179 171 -2.702703
179 179 10.228175
179 180 -6.273573
179 181 2.327926
180 2 -0.022523
180 4 -0.745747
180 179 -4.082623
180 180 15.05386
180 181 -9.202968
181 4 -6.35063
181 179 -0.116107
181 180 -7.235067
181 181 14.701804
182 4 -3.668736
182 175 -2.702703
182 182 13.796928
182 183 -7.9293
182 184 1.50381
183 2 -0.022523
183 4 -0.48086
183 182 -7.331436
183 183 16.915179
183 184 -8.08036
184 4 -6.516451
184 182 1.227728
184 183 -7.934571
184 184 14.223293
185 4 -2.579825
185 171 -2.702703
185 185 10.228175
185 186 -6.273573
185 187 2.327926
186 2 -0.022523
186 4 -0.745747
186 185 -4.082623
186 186 15.05386
186 187 -9.202968
187 4 -6.35063
187 185 -0.116107
187 186 -7.235067
187 187 14.701804
188 4 -3.668736
188 175 -2.702703
188 188 13.796928
188 189 -7.9293
188 190 1.50381
189 2 -0.022523
189 4 -0.48086
189 188 -7.331436
189 189 16.915179
189 190 -8.08036
190 4 -6.516451
190 188 1.227728
190 189 -7.934571
190 190 14.223293
191 4 -2.579825
191 171 -2.702703
191 191 10.228175
191 192 -6.273573
191 193 2.327926
192 2 -0.022523
192 4 -0.745747
192 191 -4.082623
192 192 15.05386
192 193 -9.202968
193 4 -6.35063
193 191 -0.116107
193 192 -7.235067
193 193 14.701804
194 4 -3.668736
194 175 -2.702703
194 194 13.796928
194 195 -7.9293
194 196 1.50381
195 2 -0.022523
195 4 -0.48086
195 194 -7.331436
195 195 16.915179
195 196 -8.08036
196 4 -6.516451
196 194 1.227728
196 195 -7.934571
196 196 14.223293
197 4 -2.579825
197 171 -2.702703
197 197 10.228175
197 198 -6.273573
197 199 2.327926
198 2 -0.022523
198 4 -0.745747
198 197 -4.082623
198 198 15.05386
198 199 -9.202968
199 4 -6.35063
199 197 -0.116107
199 198 -7.235067
199 199 14.701804
200 4 -3.668736
200 175 -2.702703
200 200 13.796928
200 201 -7.9293
200 202 1.50381
201 2 -0.022523
201 4 -0.48086
201 200 -7.331436
201 201 16.915179
201 202 -8.08036
202 4 -6.516451
202 200 1.227728
202 201 -7.934571
202 202 14.223293
203 4 -2.579825
203 171 -2.702703
203 203 10.228175
203 204 -6.273573
203 205 2.327926
204 2 -0.022523
204 4 -0.745747
204 203 -4.082623
204 204 15.05386
204 205 -9.202968
205 4 -6.35063
205 203 -0.116107
205 204 -7.235067
205 205 14.701804
206 4 -3.668736
206 175 -2.702703
206 206 13.796928
206 207 -7.9293
206 208 1.50381
207 2 -0.022523
207 4 -0.48086
207 206 -7.331436
207 207 16.915179
207 208 -8.08036
208 4 -6.516451
208 206 1.227728
208 207 -7.934571
208 208 14.223293
209 4 -2.579825
209 171 -2.702703
209 209 10.228175
209 210 -6.273573
209 211 2.327926
210 2 -0.022523
210 4 -0.745747
210 209 -4.082623
210 210 15.05386
210 211 -9.202968
211 4 -6.35063
211 209 -0.116107
211 210 -7.235067
211 211 14.701804
212 4 -3.668736
212 175 -2.702703
212 212 13.796928
212 213 -7.9293
212 214 1.50381
213 2 -0.022523
213 4 -0.48086
213 212 -7.331436
213 213 16.915179
213 214 -8.08036
214 4 -6.516451
214 212 1.227728
214 213 -7.934571
214 214 14.223293
215 4 -2.579825
215 171 -2.702703
215 215 10.228175
215 216 -6.273573
215 217 2.327926
216 2 -0.022523
216 4 -0.745747
216 215 -4.082623
216 216 15.05386
216 217 -9.202968
217 4 -6.35063
217 215 -0.116107
217 216 -7.235067
217 217 14.701804
218 4 -3.668736
218 175 -2.702703
218 218 13.796928
218 219 -7.9293
218 220 1.50381
219 2 -0.022523
219 4 -0.48086
219 218 -7.331436
219 219 16.915179
219 220 -8.08036
220 4 -6.516451
220 218 1.227728
220 219 -7.934571
220 220 14.223293
221 4 -2.579825
221 171 -2.702703
221 221 10.228175
221 222 -6.273573
221 223 2.327926
222 2 -0.022523
222 4 -0.745747
222 221 -4.082623
222 222 15.05386
222 223 -9.202968
223 4 -6.35063
223 221 -0.116107
223 222 -7.235067
223 223 14.701804
224 4 -3.668736
224 175 -2.702703
224 224 13.796928
224 225 -7.9293
224 226 1.50381
225 2 -0.022523
225 4 -0.48086
225 224 -7.331436
225 225 16.915179
225 226 -8.08036
226 4 -6.516451
226 224 1.227728
226 225 -7.934571
226 226 14.223293
227 4 -2.579825
227 171 -2.702703
227 227 10.228175
227 228 -6.273573
227 229 2.327926
228 2 -0.022523
228 4 -0.745747
228 227 -4.082623
228 228 15.05386
228 229 -9.202968
229 4 -6.35063
229 227 -0.116107
229 228 -7.235067
229 229 14.701804
230 4 -3.668736
230 175 -2.702703
230 230 13.796928
230 231 -7.9293
230 232 1.50381
231 2 -0.022523
231 4 -0.48086
231 230 -7.331436
231 231 16.915179
231 232 -8.08036
232 4 -6.516451
232 230 1.227728
232 231 -7.934571
232 232 14.223293
233 4 -2.579811
233 171 -2.702703
233 233 10.228172
233 234 -6.273576
233 235 2.327918
234 2 -0.022523
234 4 -0.745751
234 233 -4.082615
234 234 15.053848
234 235 -9.20296
235 4 -7.633812
235 233 -0.116112
235 234 -7.235068
235 235 15.984992
236 4 -3.668737
236 175 -2.702703
236 236 13.796943
236 237 -7.929303
236 238 1.503799
237 2 -0.022523
237 4 -0.480855
237 236 -7.331463
237 237 16.915183
237 238 -8.080343
238 4 -7.800052
238 236 1.227742
238 237 -7.934573
238 238 15.506883
239 1 -15.837
239 2 -74.9745
239 4 -1.555
239 6 -11.935
239 50 -0.4245
239 51 -2.832
239 239 296.098563
239 240 -4.054065
239 243 -0.03
239 247 -4.054065
239 253 -4.054065
239 259 -4.054065
239 265 -4.054065
239 271 -4.054065
239 277 -4.054065
239 283 -4.054065
239 289 -4.054065
239 295 -4.054065
239 301 -4.054065
239 307 -4.054065
239 313 -4.054065
239 319 -4.054065
239 325 -4.054065
239 331 -4.054065
239 337 -4.054065
239 343 -4.054065
239 349 -4.054065
239 355 -4.054065
239 361 -4.054065
239 367 -4.054065
239 373 -4.054065
239 379 -4.054065
239 385 -4.054065
239 391 -4.054065
239 397 -4.054065
239 403 -4.054065
239 409 -4.054065
239 415 -4.054065
239 421 -4.054065
239 427 -4.054065
239 433 -4.054065
239 439 -4.054065
239 445 -4.054065
239 451 -4.054065
239 457 -4.054065
239 463 -4.054065
239 469 -4.054065
239 475 -4.054065
239 481 -4.054065
239 487 -4.054065
239 493 -4.054065
239 499 -4.054065
239 505 -2.674898
239 513 -0.802472
239 519 -1.216214
239 525 -1.216214
239 531 -1.216214
239 537 -1.216214
239 543 -0.789478
240 2 -4.547047
240 239 -4.054065
240 240 18.643224
240 241 -11.208257
240 242 2.166145
241 2 -0.551414
241 6 -0.013755
241 240 -10.302835
241 241 23.507096
241 242 -11.639092
242 2 -10.147738
242 240 1.344904
242 241 -11.212979
242 242 21.015812
243 1 -15.7255
243 2 -75.113
243 4 -1.5575
243 6 -11.9355
243 50 -2.8285
243 51 -0.4245
243 239 -0.03
243 243 296.125063
243 244 -4.054065
243 250 -4.054065
243 256 -4.054065
243 262 -4.054065
243 268 -4.054065
243 274 -4.054065
243 280 -4.054065
243 286 -4.054065
243 292 -4.054065
243 298 -4.054065
243 304 -4.054065
243 310 -4.054065
243 316 -4.054065
243 322 -4.054065
243 328 -4.054065
243 334 -4.054065
243 340 -4.054065
243 346 -4.054065
243 352 -4.054065
243 358 -4.054065
243 364 -4.054065
243 370 -4.054065
243 376 -4.054065
243 382 -4.054065
243 388 -4.054065
243 394 -4.054065
243 400 -4.054065
243 406 -4.054065
243 412 -4.054065
243 418 -4.054065
243 424 -4.054065
243 430 -4.054065
243 436 -4.054065
243 442 -4.054065
243 448 -4.054065
243 454 -4.054065
243 460 -4.054065
243 466 -4.054065
243 472 -4.054065
243 478 -4.054065
243 484 -4.054065
243 490 -4.054065
243 496 -4.054065
243 502 -4.054065
243 508 -2.674898
243 516 -0.802472
243 522 -1.216214
243 528 -1.216214
243 534 -1.216214
243 540 -1.216214
243 546 -0.789478
244 2 -4.563591
244 243 -4.054065
244 244 18.69137
244 245 -11.215179
244 246 2.141465
245 2 -0.550193
245 6 -0.013755
245 244 -10.357445
245 245 23.51683
245 246 -11.595436
246 2 -10.148381
246 244 1.370788
246 245 -11.216473
246 246 20.994066
247 2 -4.547047
247 239 -4.054065
247 247 18.643213
247 248 -11.208254
247 249 2.166153
248 2 -0.551415
248 6 -0.013755
248 247 -10.302816
248 248 23.507092
248 249 -11.639107
249 2 -8.623446
249 247 1.344895
249 248 -11.212977
249 249 19.491529
250 2 -4.563591
250 243 -4.054065
250 250 18.691367
250 251 -11.215178
250 252 2.141467
251 2 -0.550193
251 6 -0.013755
251 250 -10.35744
251 251 23.516828
251 252 -11.59544
252 2 -8.624074
252 250 1.370785
252 251 -11.216472
252 252 19.469761
253 2 -4.547047
253 239 -4.054065
253 253 18.643213
253 254 -11.208254
253 255 2.166153
254 2 -0.551415
254 6 -0.013755
254 253 -10.302816
254 254 23.507092
254 255 -11.639107
255 2 -8.623446
255 253 1.344895
255 254 -11.212977
255 255 19.491529
256 2 -4.563591
256 243 -4.054065
256 256 18.691367
256 257 -11.215178
256 258 2.141467
257 2 -0.550193
257 6 -0.013755
257 256 -10.35744
257 257 23.516828
257 258 -11.59544
258 2 -8.624074
258 256 1.370785
258 257 -11.216472
258 258 19.469761
259 2 -4.547047
259 239 -4.054065
259 259 18.643213
259 260 -11.208254
259 261 2.166153
260 2 -0.551415
260 6 -0.013755
260 259 -10.302816
260 260 23.507092
260 261 -11.639107
261 2 -8.623446
261 259 1.344895
261 260 -11.212977
261 261 19.491529
262 2 -4.563591
262 243 -4.054065
262 262 18.691367
262 263 -11.215178
262 264 2.141467
263 2 -0.550193
263 6 -0.013755
263 262 -10.35744
263 263 23.516828
263 264 -11.59544
264 2 -8.624074
264 262 1.370785
264 263 -11.216472
264 264 19.469761
265 2 -4.547047
265 239 -4.054065
265 265 18.643213
265 266 -11.208254
265 267 2.166153
266 2 -0.551415
266 6 -0.013755
266 265 -10.302816
266 266 23.507092
266 267 -11.639107
267 2 -8.623446
267 265 1.344895
267 266 -11.212977
267 267 19.491529
268 2 -4.563591
268 243 -4.054065
268 268 18.691367
268 269 -11.215178
268 270 2.141467
269 2 -0.550193
269 6 -0.013755
269 268 -10.35744
269 269 23.516828
269 270 -11.59544
270 2 -8.624074
270 268 1.370785
270 269 -11.216472
270 270 19.469761
271 2 -4.547047
271 239 -4.054065
271 271 18.643213
271 272 -11.208254
271 273 2.166153
272 2 -0.551415
272 6 -0.013755
272 271 -10.302816
272 272 23.507092
272 273 -11.639107
273 2 -8.623446
273 271 1.344895
273 272 -11.212977
273 273 19.491529
274 2 -4.563591
274 243 -4.054065
274 274 18.691367
274 275 -11.215178
274 276 2.141467
275 2 -0.550193
275 6 -0.013755
275 274 -10.35744
275 275 23.516828
275 276 -11.59544
276 2 -8.624074
276 274 1.370785
276 275 -11.216472
276 276 19.469761
277 2 -4.547047
277 239 -4.054065
277 277 18.643213
277 278 -11.208254
277 279 2.166153
278 2 -0.551415
278 6 -0.013755
278 277 -10.302816
278 278 23.507092
278 279 -11.639107
279 2 -8.623446
279 277 1.344895
279 278 -11.212977
279 279 19.491529
280 2 -4.563591
280 243 -4.054065
280 280 18.691367
280 281 -11.215178
280 282 2.141467
281 2 -0.550193
281 6 -0.013755
281 280 -10.35744
281 281 23.516828
281 282 -11.59544
282 2 -8.624074
282 280 1.370785
282 281 -11.216472
282 282 19.469761
283 2 -4.547047
283 239 -4.054065
283 283 18.643213
283 284 -11.208254
283 285 2.166153
284 2 -0.551415
284 6 -0.013755
284 283 -10.302816
284 284 23.507092
284 285 -11.639107
285 2 -8.623446
285 283 1.344895
285 284 -11.212977
285 285 19.491529
286 2 -4.563591
286 243 -4.054065
286 286 18.691367
286 287 -11.215178
286 288 2.141467
287 2 -0.550193
287 6 -0.013755
287 286 -10.35744
287 287 23.516828
287 288 -11.59544
288 2 -8.624074
288 286 1.370785
288 287 -11.216472
288 288 19.469761
289 2 -4.547047
289 239 -4.054065
289 289 18.643213
289 290 -11.208254
289 291 2.166153
290 2 -0.551415
290 6 -0.013755
290 289 -10.302816
290 290 23.507092
290 291 -11.639107
291 2 -8.623446
291 289 1.344895
291 290 -11.212977
291 291 19.491529
292 2 -4.563591
292 243 -4.054065
292 292 18.691367
292 293 -11.215178
292 294 2.141467
293 2 -0.550193
293 6 -0.013755
293 292 -10.35744
293 293 23.516828
293 294 -11.59544
294 2 -8.624074
294 292 1.370785
294 293 -11.216472
294 294 19.469761
295 2 -4.547047
295 239 -4.054065
295 295 18.643213
295 296 -11.208254
295 297 2.166153
296 2 -0.551415
296 6 -0.013755
296 295 -10.302816
296 296 23.507092
296 297 -11.639107
297 2 -8.623446
297 295 1.344895
297 296 -11.212977
297 297 19.491529
298 2 -4.563591
298 243 -4.054065
298 298 18.691367
298 299 -11.215178
298 300 2.141467
299 2 -0.550193
299 6 -0.013755
299 298 -10.35744
299 299 23.516828
299 300 -11.59544
300 2 -8.624074
300 298 1.370785
300 299 -11.216472
300 300 19.469761
301 2 -4.547047
301 239 -4.054065
301 301 18.643213
301 302 -11.208254
301 303 2.166153
302 2 -0.551415
302 6 -0.013755
302 301 -10.302816
302 302 23.507092
302 303 -11.639107
303 2 -8.623446
303 301 1.344895
303 302 -11.212977
303 303 19.491529
304 2 -4.563591
304 243 -4.054065
304 304 18.691367
304 305 -11.215178
304 306 2.141467
305 2 -0.550193
305 6 -0.013755
305 304 -10.35744
305 305 23.516828
305 306 -11.59544
306 2 -8.624074
306 304 1.370785
306 305 -11.216472
306 306 19.469761
307 2 -4.547047
307 239 -4.054065
307 307 18.643213
307 308 -11.208254
307 309 2.166153
308 2 -0.551415
308 6 -0.013755
308 307 -10.302816
308 308 23.507092
308 309 -11.639107
309 2 -8.623446
309 307 1.344895
309 308 -11.212977
309 309 19.491529
310 2 -4.563591
310 243 -4.054065
310 310 18.691367
310 311 -11.215178
310 312 2.141467
311 2 -0.550193
311 6 -0.013755
311 310 -10.35744
311 311 23.516828
311 312 -11.59544
312 2 -8.624074
312 310 1.370785
312 311 -11.216472
312 312 19.469761
313 2 -4.547047
313 239 -4.054065
313 313 18.643213
313 314 -11.208254
313 315 2.166153
314 2 -0.551415
314 6 -0.013755
314 313 -10.302816
314 314 23.507092
314 315 -11.639107
315 2 -8.623446
315 313 1.344895
315 314 -11.212977
315 315 19.491529
316 2 -4.563591
316 243 -4.054065
316 316 18.691367
316 317 -11.215178
316 318 2.141467
317 2 -0.550193
317 6 -0.013755
317 316 -10.35744
317 317 23.516828
317 318 -11.59544
318 2 -8.624074
318 316 1.370785
318 317 -11.216472
318 318 19.469761
319 2 -4.547047
319 239 -4.054065
319 319 18.643213
319 320 -11.208254
319 321 2.166153
320 2 -0.551415
320 6 -0.013755
320 319 -10.302816
320 320 23.507092
320 321 -11.639107
321 2 -8.623446
321 319 1.344895
321 320 -11.212977
321 321 19.491529
322 2 -4.563591
322 243 -4.054065
322 322 18.691367
322 323 -11.215178
322 324 2.141467
323 2 -0.550193
323 6 -0.013755
323 322 -10.35744
323 323 23.516828
323 324 -11.59544
324 2 -8.624074
324 322 1.370785
324 323 -11.216472
324 324 19.469761
325 2 -4.547047
325 239 -4.054065
325 325 18.643213
325 326 -11.208254
325 327 2.166153
326 2 -0.551415
326 6 -0.013755
326 325 -10.302816
326 326 23.507092
326 327 -11.639107
327 2 -8.623446
327 325 1.344895
327 326 -11.212977
327 327 19.491529
328 2 -4.563591
328 243 -4.054065
328 328 18.691367
328 329 -11.215178
328 330 2.141467
329 2 -0.550193
329 6 -0.013755
329 328 -10.35744
329 329 23.516828
329 330 -11.59544
330 2 -8.624074
330 328 1.370785
330 329 -11.216472
330 330 19.469761
331 2 -4.547047
331 239 -4.054065
331 331 18.643213
331 332 -11.208254
331 333 2.166153
332 2 -0.551415
332 6 -0.013755
332 331 -10.302816
332 332 23.507092
332 333 -11.639107
333 2 -8.623446
333 331 1.344895
333 332 -11.212977
333 333 19.491529
334 2 -4.563591
334 243 -4.054065
334 334 18.691367
334 335 -11.215178
334 336 2.141467
335 2 -0.550193
335 6 -0.013755
335 334 -10.35744
335 335 23.516828
335 336 -11.59544
336 2 -8.624074
336 334 1.370785
336 335 -11.216472
336 336 19.469761
337 2 -4.547047
337 239 -4.054065
337 337 18.643213
337 338 -11.208254
337 339 2.166153
338 2 -0.551415
338 6 -0.013755
338 337 -10.302816
338 338 23.507092
338 339 -11.639107
339 2 -8.623446
339 337 1.344895
339 338 -11.212977
339 339 19.491529
340 2 -4.563591
340 243 -4.054065
340 340 18.691367
340 341 -11.215178
340 342 2.141467
341 2 -0.550193
341 6 -0.013755
341 340 -10.35744
341 341 23.516828
341 342 -11.59544
342 2 -8.624074
342 340 1.370785
342 341 -11.216472
342 342 19.469761
343 2 -4.547047
343 239 -4.054065
343 343 18.643213
343 344 -11.208254
343 345 2.166153
344 2 -0.551415
344 6 -0.013755
344 343 -10.302816
344 344 23.507092
344 345 -11.639107
345 2 -8.623446
345 343 1.344895
345 344 -11.212977
345 345 19.491529
346 2 -4.563591
346 243 -4.054065
346 346 18.691367
346 347 -11.215178
346 348 2.141467
347 2 -0.550193
347 6 -0.013755
347 346 -10.35744
347 347 23.516828
347 348 -11.59544
348 2 -8.624074
348 346 1.370785
348 347 -11.216472
348 348 19.469761
349 2 -4.547047
349 239 -4.054065
349 349 18.643213
349 350 -11.208254
349 351 2.166153
350 2 -0.551415
350 6 -0.013755
350 349 -10.302816
350 350 23.507092
350 351 -11.639107
351 2 -8.623446
351 349 1.344895
351 350 -11.212977
351 351 19.491529
352 2 -4.563591
352 243 -4.054065
352 352 18.691367
352 353 -11.215178
352 354 2.141467
353 2 -0.550193
353 6 -0.013755
353 352 -10.35744
353 353 23.516828
353 354 -11.59544
354 2 -8.624074
354 352 1.370785
354 353 -11.216472
354 354 19.469761
355 2 -4.547047
355 239 -4.054065
355 355 18.643213
355 356 -11.208254
355 357 2.166153
356 2 -0.551415
356 6 -0.013755
356 355 -10.302816
356 356 23.507092
356 357 -11.639107
357 2 -8.623446
357 355 1.344895
357 356 -11.212977
357 357 19.491529
358 2 -4.563591
358 243 -4.054065
358 358 18.691367
358 359 -11.215178
358 360 2.141467
359 2 -0.550193
359 6 -0.013755
359 358 -10.35744
359 359 23.516828
359 360 -11.59544
360 2 -8.624074
360 358 1.370785
360 359 -11.216472
360 360 19.469761
361 2 -4.547047
361 239 -4.054065
361 361 18.643213
361 362 -11.208254
361 363 2.166153
362 2 -0.551415
362 6 -0.013755
362 361 -10.302816
362 362 23.507092
362 363 -11.639107
363 2 -8.623446
363 361 1.344895
363 362 -11.212977
363 363 19.491529
364 2 -4.563591
364 243 -4.054065
364 364 18.691367
364 365 -11.215178
364 366 2.141467
365 2 -0.550193
365 6 -0.013755
365 364 -10.35744
365 365 23.516828
365 366 -11.59544
366 2 -8.624074
366 364 1.370785
366 365 -11.216472
366 366 19.469761
367 2 -4.547047
367 239 -4.054065
367 367 18.643213
367 368 -11.208254
367 369 2.166153
368 2 -0.551415
368 6 -0.013755
368 367 -10.302816
368 368 23.507092
368 369 -11.639107
369 2 -8.623446
369 367 1.344895
369 368 -11.212977
369 369 19.491529
370 2 -4.563591
370 243 -4.054065
370 370 18.691367
370 371 -11.215178
370 372 2.141467
371 2 -0.550193
371 6 -0.013755
371 370 -10.35744
371 371 23.516828
371 372 -11.59544
372 2 -8.624074
372 370 1.370785
372 371 -11.216472
372 372 19.469761
373 2 -4.547047
373 239 -4.054065
373 373 18.643213
373 374 -11.208254
373 375 2.166153
374 2 -0.551415
374 6 -0.013755
374 373 -10.302816
374 374 23.507092
374 375 -11.639107
375 2 -8.623446
375 373 1.344895
375 374 -11.212977
375 375 19.491529
376 2 -4.563591
376 243 -4.054065
376 376 18.691367
376 377 -11.215178
376 378 2.141467
377 2 -0.550193
377 6 -0.013755
377 376 -10.35744
377 377 23.516828
377 378 -11.59544
378 2 -8.624074
378 376 1.370785
378 377 -11.216472
378 378 19.469761
379 2 -4.547047
379 239 -4.054065
379 379 18.643213
379 380 -11.208254
379 381 2.166153
380 2 -0.551415
380 6 -0.013755
380 379 -10.302816
380 380 23.507092
380 381 -11.639107
381 2 -8.623446
381 379 1.344895
381 380 -11.212977
381 381 19.491529
382 2 -4.563591
382 243 -4.054065
382 382 18.691367
382 383 -11.215178
382 384 2.141467
383 2 -0.550193
383 6 -0.013755
383 382 -10.35744
383 383 23.516828
383 384 -11.59544
384 2 -8.624074
384 382 1.370785
384 383 -11.216472
384 384 19.469761
385 2 -4.547047
385 239 -4.054065
385 385 18.643213
385 386 -11.208254
385 387 2.166153
386 2 -0.551415
386 6 -0.013755
386 385 -10.302816
386 386 23.507092
386 387 -11.639107
387 2 -8.623446
387 385 1.344895
387 386 -11.212977
387 387 19.491529
388 2 -4.563591
388 243 -4.054065
388 388 18.691367
388 389 -11.215178
388 390 2.141467
389 2 -0.550193
389 6 -0.013755
389 388 -10.35744
389 389 23.516828
389 390 -11.59544
390 2 -8.624074
390 388 1.370785
390 389 -11.216472
390 390 19.469761
391 2 -4.547047
391 239 -4.054065
391 391 18.643213
391 392 -11.208254
391 393 2.166153
392 2 -0.551415
392 6 -0.013755
392 391 -10.302816
392 392 23.507092
392 393 -11.639107
393 2 -8.623446
393 391 1.344895
393 392 -11.212977
393 393 19.491529
394 2 -4.563591
394 243 -4.054065
394 394 18.691367
394 395 -11.215178
394 396 2.141467
395 2 -0.550193
395 6 -0.013755
395 394 -10.35744
395 395 23.516828
395 396 -11.59544
396 2 -8.624074
396 394 1.370785
396 395 -11.216472
396 396 19.469761
397 2 -4.547047
397 239 -4.054065
397 397 18.643213
397 398 -11.208254
397 399 2.166153
398 2 -0.551415
398 6 -0.013755
398 397 -10.302816
398 398 23.507092
398 399 -11.639107
399 2 -8.623446
399 397 1.344895
399 398 -11.212977
399 399 19.491529
400 2 -4.563591
400 243 -4.054065
400 400 18.691367
400 401 -11.215178
400 402 2.141467
401 2 -0.550193
401 6 -0.013755
401 400 -10.35744
401 401 23.516828
401 402 -11.59544
402 2 -8.624074
402 400 1.370785
402 401 -11.216472
402 402 19.469761
403 2 -4.547047
403 239 -4.054065
403 403 18.643213
403 404 -11.208254
403 405 2.166153
404 2 -0.551415
404 6 -0.013755
404 403 -10.302816
404 404 23.507092
404 405 -11.639107
405 2 -8.623446
405 403 1.344895
405 404 -11.212977
405 405 19.491529
406 2 -4.563591
406 243 -4.054065
406 406 18.691367
406 407 -11.215178
406 408 2.141467
407 2 -0.550193
407 6 -0.013755
407 406 -10.35744
407 407 23.516828
407 408 -11.59544
408 2 -8.624074
408 406 1.370785
408 407 -11.216472
408 408 19.469761
409 2 -4.547047
409 239 -4.054065
409 409 18.643213
409 410 -11.208254
409 411 2.166153
410 2 -0.551415
410 6 -0.013755
410 409 -10.302816
410 410 23.507092
410 411 -11.639107
411 2 -8.623446
411 409 1.344895
411 410 -11.212977
411 411 19.491529
412 2 -4.563591
412 243 -4.054065
412 412 18.691367
412 413 -11.215178
412 414 2.141467
413 2 -0.550193
413 6 -0.013755
413 412 -10.35744
413 413 23.516828
413 414 -11.59544
414 2 -8.624074
414 412 1.370785
414 413 -11.216472
414 414 19.469761
415 2 -4.547047
415 239 -4.054065
415 415 18.643213
415 416 -11.208254
415 417 2.166153
416 2 -0.551415
416 6 -0.013755
416 415 -10.302816
416 416 23.507092
416 417 -11.639107
417 2 -8.623446
417 415 1.344895
417 416 -11.212977
417 417 19.491529
418 2 -4.563591
418 243 -4.054065
418 418 18.691367
418 419 -11.215178
418 420 2.141467
419 2 -0.550193
419 6 -0.013755
419 418 -10.35744
419 419 23.516828
419 420 -11.59544
420 2 -8.624074
420 418 1.370785
420 419 -11.216472
420 420 19.469761
421 2 -4.547047
421 239 -4.054065
421 421 18.643213
421 422 -11.208254
421 423 2.166153
422 2 -0.551415
422 6 -0.013755
422 421 -10.302816
422 422 23.507092
422 423 -11.639107
423 2 -8.623446
423 421 1.344895
423 422 -11.212977
423 423 19.491529
424 2 -4.563591
424 243 -4.054065
424 424 18.691367
424 425 -11.215178
424 426 2.141467
425 2 -0.550193
425 6 -0.013755
425 424 -10.35744
425 425 23.516828
425 426 -11.59544
426 2 -8.624074
426 424 1.370785
426 425 -11.216472
426 426 19.469761
427 2 -4.547047
427 239 -4.054065
427 427 18.643213
427 428 -11.208254
427 429 2.166153
428 2 -0.551415
428 6 -0.013755
428 427 -10.302816
428 428 23.507092
428 429 -11.639107
429 2 -8.623446
429 427 1.344895
429 428 -11.212977
429 429 19.491529
430 2 -4.563591
430 243 -4.054065
430 430 18.691367
430 431 -11.215178
430 432 2.141467
431 2 -0.550193
431 6 -0.013755
431 430 -10.35744
431 431 23.516828
431 432 -11.59544
432 2 -8.624074
432 430 1.370785
432 431 -11.216472
432 432 19.469761
433 2 -4.547047
433 239 -4.054065
433 433 18.643213
433 434 -11.208254
433 435 2.166153
434 2 -0.551415
434 6 -0.013755
434 433 -10.302816
434 434 23.507092
434 435 -11.639107
435 2 -8.623446
435 433 1.344895
435 434 -11.212977
435 435 19.491529
436 2 -4.563591
436 243 -4.054065
436 436 18.691367
436 437 -11.215178
436 438 2.141467
437 2 -0.550193
437 6 -0.013755
437 436 -10.35744
437 437 23.516828
437 438 -11.59544
438 2 -8.624074
438 436 1.370785
438 437 -11.216472
438 438 19.469761
439 2 -4.547047
439 239 -4.054065
439 439 18.643213
439 440 -11.208254
439 441 2.166153
440 2 -0.551415
440 6 -0.013755
440 439 -10.302816
440 440 23.507092
440 441 -11.639107
441 2 -8.623446
441 439 1.344895
441 440 -11.212977
441 441 19.491529
442 2 -4.563591
442 243 -4.054065
442 442 18.691367
442 443 -11.215178
442 444 2.141467
443 2 -0.550193
443 6 -0.013755
443 442 -10.35744
443 443 23.516828
443 444 -11.59544
444 2 -8.624074
444 442 1.370785
444 443 -11.216472
444 444 19.469761
445 2 -4.547047
445 239 -4.054065
445 445 18.643213
445 446 -11.208254
445 447 2.166153
446 2 -0.551415
446 6 -0.013755
446 445 -10.302816
446 446 23.507092
446 447 -11.639107
447 2 -8.623446
447 445 1.344895
447 446 -11.212977
447 447 19.491529
448 2 -4.563591
448 243 -4.054065
448 448 18.691367
448 449 -11.215178
448 450 2.141467
449 2 -0.550193
449 6 -0.013755
449 448 -10.35744
449 449 23.516828
449 450 -11.59544
450 2 -8.624074
450 448 1.370785
450 449 -11.216472
450 450 19.469761
451 2 -4.547047
451 239 -4.054065
451 451 18.643213
451 452 -11.208254
451 453 2.166153
452 2 -0.551415
452 6 -0.013755
452 451 -10.302816
452 452 23.507092
452 453 -11.639107
453 2 -8.623446
453 451 1.344895
453 452 -11.212977
453 453 19.491529
454 2 -4.563591
454 243 -4.054065
454 454 18.691367
454 455 -11.215178
454 456 2.141467
455 2 -0.550193
455 6 -0.013755
455 454 -10.35744
455 455 23.516828
455 456 -11.59544
456 2 -8.624074
456 454 1.370785
456 455 -11.216472
456 456 19.469761
457 2 -4.547047
457 239 -4.054065
457 457 18.643213
457 458 -11.208254
457 459 2.166153
458 2 -0.551415
458 6 -0.013755
458 457 -10.302816
458 458 23.507092
458 459 -11.639107
459 2 -8.623446
459 457 1.344895
459 458 -11.212977
459 459 19.491529
460 2 -4.563591
460 243 -4.054065
460 460 18.691367
460 461 -11.215178
460 462 2.141467
461 2 -0.550193
461 6 -0.013755
461 460 -10.35744
461 461 23.516828
461 462 -11.59544
462 2 -8.624074
462 460 1.370785
462 461 -11.216472
462 462 19.469761
463 2 -4.547047
463 239 -4.054065
463 463 18.643213
463 464 -11.208254
463 465 2.166153
464 2 -0.551415
464 6 -0.013755
464 463 -10.302816
464 464 23.507092
464 465 -11.639107
465 2 -8.623446
465 463 1.344895
465 464 -11.212977
465 465 19.491529
466 2 -4.563591
466 243 -4.054065
466 466 18.691367
466 467 -11.215178
466 468 2.141467
467 2 -0.550193
467 6 -0.013755
467 466 -10.35744
467 467 23.516828
467 468 -11.59544
468 2 -8.624074
468 466 1.370785
468 467 -11.216472
468 468 19.469761
469 2 -4.547047
469 239 -4.054065
469 469 18.643213
469 470 -11.208254
469 471 2.166153
470 2 -0.551415
470 6 -0.013755
470 469 -10.302816
470 470 23.507092
470 471 -11.639107
471 2 -8.623446
471 469 1.344895
471 470 -11.212977
471 471 19.491529
472 2 -4.563591
472 243 -4.054065
472 472 18.691367
472 473 -11.215178
472 474 2.141467
473 2 -0.550193
473 6 -0.013755
473 472 -10.35744
473 473 23.516828
473 474 -11.59544
474 2 -8.624074
474 472 1.370785
474 473 -11.216472
474 474 19.469761
475 2 -4.547047
475 239 -4.054065
475 475 18.643213
475 476 -11.208254
475 477 2.166153
476 2 -0.551415
476 6 -0.013755
476 475 -10.302816
476 476 23.507092
476 477 -11.639107
477 2 -8.623446
477 475 1.344895
477 476 -11.212977
477 477 19.491529
478 2 -4.563591
478 243 -4.054065
478 478 18.691367
478 479 -11.215178
478 480 2.141467
479 2 -0.550193
479 6 -0.013755
479 478 -10.35744
479 479 23.516828
479 480 -11.59544
480 2 -8.624074
480 478 1.370785
480 479 -11.216472
480 480 19.469761
481 2 -4.547047
481 239 -4.054065
481 481 18.643213
481 482 -11.208254
481 483 2.166153
482 2 -0.551415
482 6 -0.013755
482 481 -10.302816
482 482 23.507092
482 483 -11.639107
483 2 -8.623446
483 481 1.344895
483 482 -11.212977
483 483 19.491529
484 2 -4.563591
484 243 -4.054065
484 484 18.691367
484 485 -11.215178
484 486 2.141467
485 2 -0.550193
485 6 -0.013755
485 484 -10.35744
485 485 23.516828
485 486 -11.59544
486 2 -8.624074
486 484 1.370785
486 485 -11.216472
486 486 19.469761
487 2 -4.547047
487 239 -4.054065
487 487 18.643213
487 488 -11.208254
487 489 2.166153
488 2 -0.551415
488 6 -0.013755
488 487 -10.302816
488 488 23.507092
488 489 -11.639107
489 2 -8.623446
489 487 1.344895
489 488 -11.212977
489 489 19.491529
490 2 -4.563591
490 243 -4.054065
490 490 18.691367
490 491 -11.215178
490 492 2.141467
491 2 -0.550193
491 6 -0.013755
491 490 -10.35744
491 491 23.516828
491 492 -11.59544
492 2 -8.624074
492 490 1.370785
492 491 -11.216472
492 492 19.469761
493 2 -4.547047
493 239 -4.054065
493 493 18.643213
493 494 -11.208254
493 495 2.166153
494 2 -0.551415
494 6 -0.013755
494 493 -10.302816
494 494 23.507092
494 495 -11.639107
495 2 -8.623446
495 493 1.344895
495 494 -11.212977
495 495 19.491529
496 2 -4.563591
496 243 -4.054065
496 496 18.691367
496 497 -11.215178
496 498 2.141467
497 2 -0.550193
497 6 -0.013755
497 496 -10.35744
497 497 23.516828
497 498 -11.59544
498 2 -8.624074
498 496 1.370785
498 497 -11.216472
498 498 19.469761
499 2 -4.547047
499 239 -4.054065
499 499 18.643213
499 500 -11.208254
499 501 2.166153
500 2 -0.551415
500 6 -0.013755
500 499 -10.302816
500 500 23.507092
500 501 -11.639107
501 2 -8.623446
501 499 1.344895
501 500 -11.212977
501 501 19.491529
502 2 -4.563591
502 243 -4.054065
502 502 18.691367
502 503 -11.215178
502 504 2.141467
503 2 -0.550193
503 6 -0.013755
503 502 -10.35744
503 503 23.516828
503 504 -11.59544
504 2 -8.624074
504 502 1.370785
504 503 -11.216472
504 504 19.469761
505 2 -6.930795
505 239 -2.674898
505 505 19.647806
505 506 -11.208256
505 507 2.166144
506 2 -0.551414
506 6 -0.013755
506 505 -10.302835
506 506 23.507096
506 507 -11.639092
507 2 -8.623447
507 505 1.344904
507 506 -11.212979
507 507 19.491522
508 2 -6.956231
508 243 -2.674898
508 508 19.704846
508 509 -11.215179
508 510 2.141463
509 2 -0.550193
509 6 -0.013755
509 508 -10.35745
509 509 23.51683
509 510 -11.595432
510 2 -8.624074
510 508 1.37079
510 509 -11.216473
510 510 19.469757
511 2 -1.193095
511 51 -1.216214
511 511 5.31639
511 512 -2.782308
511 513 0.875227
512 2 -0.205445
512 50 -0.045872
512 511 -1.907526
512 512 6.996248
512 513 -3.837406
513 2 -2.062253
513 239 -0.802472
513 511 -0.027086
513 512 -3.10591
513 513 6.997721
514 2 -1.087585
514 50 -1.216214
514 514 4.999827
514 515 -2.540286
514 516 0.844257
515 2 -0.228264
515 51 -0.045872
515 514 -1.666093
515 515 6.72079
515 516 -3.780562
516 2 -2.064018
516 243 -0.802472
516 514 -0.056775
516 515 -3.0527
516 516 6.975966
517 2 -1.193097
517 51 -1.216214
517 517 5.316395
517 518 -2.78231
517 519 0.875226
518 2 -0.205451
518 50 -0.045872
518 517 -1.907532
518 518 6.996251
518 519 -3.837396
519 2 -1.45818
519 239 -1.216214
519 517 -0.027085
519 518 -3.105911
519 519 6.807389
520 2 -1.087586
520 50 -1.216214
520 520 4.999827
520 521 -2.540297
520 522 0.844269
521 2 -0.228266
521 51 -0.045872
521 520 -1.666092
521 521 6.720816
521 522 -3.780586
522 2 -1.457809
522 243 -1.216214
522 520 -0.056776
522 521 -3.052718
522 522 6.783516
523 2 -1.193097
523 51 -1.216214
523 523 5.316395
523 524 -2.78231
523 525 0.875226
524 2 -0.205451
524 50 -0.045872
524 523 -1.907532
524 524 6.996251
524 525 -3.837396
525 2 -1.45818
525 239 -1.216214
525 523 -0.027085
525 524 -3.105911
525 525 6.807389
526 2 -1.087586
526 50 -1.216214
526 526 4.999827
526 527 -2.540297
526 528 0.844269
527 2 -0.228266
527 51 -0.045872
527 526 -1.666092
527 527 6.720816
527 528 -3.780586
528 2 -1.457809
528 243 -1.216214
528 526 -0.056776
528 527 -3.052718
528 528 6.783516
529 2 -1.193097
529 51 -1.216214
529 529 5.316395
529 530 -2.78231
529 531 0.875226
530 2 -0.205451
530 50 -0.045872
530 529 -1.907532
530 530 6.996251
530 531 -3.837396
531 2 -1.45818
531 239 -1.216214
531 529 -0.027085
531 530 -3.105911
531 531 6.807389
532 2 -1.087586
532 50 -1.216214
532 532 4.999827
532 533 -2.540297
532 534 0.844269
533 2 -0.228266
533 51 -0.045872
533 532 -1.666092
533 533 6.720816
533 534 -3.780586
534 2 -1.457809
534 243 -1.216214
534 532 -0.056776
534 533 -3.052718
534 534 6.783516
535 2 -1.193097
535 51 -1.216214
535 535 5.316395
535 536 -2.78231
535 537 0.875226
536 2 -0.205451
536 50 -0.045872
536 535 -1.907532
536 536 6.996251
536 537 -3.837396
537 2 -1.45818
537 239 -1.216214
537 535 -0.027085
537 536 -3.105911
537 537 6.807389
538 2 -1.087586
538 50 -1.216214
538 538 4.999827
538 539 -2.540297
538 540 0.844269
539 2 -0.228266
539 51 -0.045872
539 538 -1.666092
539 539 6.720816
539 540 -3.780586
540 2 -1.457809
540 243 -1.216214
540 538 -0.056776
540 539 -3.052718
540 540 6.783516
541 2 -1.193095
541 51 -1.216214
541 541 5.316389
541 542 -2.782308
541 543 0.875227
542 2 -0.205444
542 50 -0.045872
542 541 -1.907525
542 542 6.996248
542 543 -3.837407
543 2 -2.397157
543 239 -0.789478
543 541 -0.027087
543 542 -3.10591
543 543 7.319631
544 2 -1.087585
544 50 -1.216214
544 544 4.999827
544 545 -2.540285
544 546 0.844256
545 2 -0.228264
545 51 -0.045872
545 544 -1.666093
545 545 6.720789
545 546 -3.780561
546 2 -2.400648
546 243 -0.789478
546 544 -0.056775
546 545 -3.0527
546 546 7.299601
547 2 -0.656299
547 51 -0.608106
547 547 3.18864
547 548 -1.361214
547 549 0.436979
548 2 -0.105925
548 46 -0.091743
548 547 -0.918365
548 548 4.022692
548 549 -1.906658
549 2 -1.723393
549 547 -0.022244
549 548 -1.543958
549 549 4.289595
550 2 -0.656299
550 51 -0.608106
550 550 3.18864
550 551 -1.361214
550 552 0.436979
551 2 -0.105925
551 46 -0.091743
551 550 -0.918365
551 551 4.022692
551 552 -1.906658
552 2 -1.723393
552 550 -0.022244
552 551 -1.543958
552 552 4.289595
553 2 -0.597585
553 50 -0.608106
553 553 3.05999
553 554 -1.28218
553 555 0.427882
554 2 -0.112492
554 48 -0.091743
554 553 -0.840475
554 554 3.937403
554 555 -1.892692
555 2 -1.721235
555 553 -0.02863
555 554 -1.533609
555 555 4.283474
556 2 -0.597585
556 50 -0.608106
556 556 3.05999
556 557 -1.28218
556 558 0.427882
557 2 -0.112492
557 48 -0.091743
557 556 -0.840475
557 557 3.937403
557 558 -1.892692
558 2 -1.721235
558 556 -0.02863
558 557 -1.533609
558 558 4.283474
559 2 -2.240849
559 145 -2.837837
559 559 9.890358
559 560 -6.153998
559 561 2.342326
560 2 -0.640031
560 51 -0.021413
560 559 -3.735278
560 560 15.074068
560 561 -9.677346
561 2 -7.137657
561 559 -0.146786
561 560 -7.656063
561 561 15.940506
562 2 -2.957895
562 149 -2.837837
562 562 12.792615
562 563 -8.164038
562 564 2.167156
563 2 -0.474806
563 50 -0.021413
563 562 -6.62466
563 563 17.573661
563 564 -9.452782
564 2 -7.193751
564 562 0.627177
564 563 -8.306899
564 564 15.873474
565 2 -2.240852
565 145 -2.837837
565 565 9.890358
565 566 -6.154017
565 567 2.342349
566 2 -0.640039
566 51 -0.021413
566 565 -3.735278
566 566 15.074114
566 567 -9.677384
567 2 -6.044945
567 565 -0.146786
567 566 -7.656094
567 567 14.847824
568 2 -2.957897
568 149 -2.837837
568 568 12.792523
568 569 -8.163977
568 570 2.167188
569 2 -0.474818
569 50 -0.021413
569 568 -6.62452
569 569 17.573571
569 570 -9.45282
570 2 -6.101063
570 568 0.62712
570 569 -8.306865
570 570 14.780808
571 2 -2.240852
571 145 -2.837837
571 571 9.890358
571 572 -6.154017
571 573 2.342349
572 2 -0.640039
572 51 -0.021413
572 571 -3.735278
572 572 15.074114
572 573 -9.677384
573 2 -6.044945
573 571 -0.146786
573 572 -7.656094
573 573 14.847824
574 2 -2.957897
574 149 -2.837837
574 574 12.792523
574 575 -8.163977
574 576 2.167188
575 2 -0.474818
575 50 -0.021413
575 574 -6.62452
575 575 17.573571
575 576 -9.45282
576 2 -6.101063
576 574 0.62712
576 575 -8.306865
576 576 14.780808
577 2 -2.240849
577 145 -2.837837
577 577 9.890358
577 578 -6.153998
577 579 2.342326
578 2 -0.640031
578 51 -0.021413
578 577 -3.735278
578 578 15.074068
578 579 -9.677346
579 2 -7.137657
579 577 -0.146786
579 578 -7.656063
579 579 15.940506
580 2 -2.957895
580 149 -2.837837
580 580 12.792615
580 581 -8.164038
580 582 2.167156
581 2 -0.474806
581 50 -0.021413
581 580 -6.62466
581 581 17.573661
581 582 -9.452782
582 2 -7.193751
582 580 0.627177
582 581 -8.306899
582 582 15.873474
583 2 -3.301612
583 171 -3.162165
583 583 14.713208
583 584 -9.372026
583 585 2.122596
584 2 -0.496462
584 145 -0.019231
584 583 -8.241212
584 584 19.849717
584 585 -10.092812
585 2 -7.993764
585 583 1.03706
585 584 -9.40876
585 585 17.365464
586 2 -2.332247
586 175 -3.162165
586 586 10.819093
586 587 -4.609972
586 588 0.285292
587 2 -0.968045
587 149 -0.019231
587 586 -4.282168
587 587 11.781772
587 588 -5.512328
588 2 -7.80962
588 586 -0.018052
588 587 -5.283132
588 588 14.110803
589 2 -3.301621
589 171 -3.162165
589 589 14.713056
589 590 -9.371963
589 591 2.122694
590 2 -0.496488
590 145 -0.019231
590 589 -8.24096
590 590 19.849619
590 591 -10.09294
591 2 -6.786392
591 589 1.036946
591 590 -9.408718
591 591 16.158165
592 2 -2.332247
592 175 -3.162165
592 592 10.819092
592 593 -4.609982
592 594 0.285303
593 2 -0.968045
593 149 -0.019231
593 592 -4.282167
593 593 11.781794
593 594 -5.512352
594 2 -6.60167
594 592 -0.018053
594 593 -5.283147
594 594 12.902869
595 2 -3.301621
595 171 -3.162165
595 595 14.713056
595 596 -9.371963
595 597 2.122694
596 2 -0.496488
596 145 -0.019231
596 595 -8.24096
596 596 19.849619
596 597 -10.09294
597 2 -6.786392
597 595 1.036946
597 596 -9.408718
597 597 16.158165
598 2 -2.332247
598 175 -3.162165
598 598 10.819092
598 599 -4.609982
598 600 0.285303
599 2 -0.968045
599 149 -0.019231
599 598 -4.282167
599 599 11.781794
599 600 -5.512352
600 2 -6.60167
600 598 -0.018053
600 599 -5.283147
600 600 12.902869
601 2 -3.301621
601 171 -3.162165
601 601 14.713056
601 602 -9.371963
601 603 2.122694
602 2 -0.496488
602 145 -0.019231
602 601 -8.24096
602 602 19.849619
602 603 -10.09294
603 2 -6.786392
603 601 1.036946
603 602 -9.408718
603 603 16.158165
604 2 -2.332247
604 175 -3.162165
604 604 10.819092
604 605 -4.609982
604 606 0.285303
605 2 -0.968045
605 149 -0.019231
605 604 -4.282167
605 605 11.781794
605 606 -5.512352
606 2 -6.60167
606 604 -0.018053
606 605 -5.283147
606 606 12.902869
607 2 -3.301621
607 171 -3.162165
607 607 14.713056
607 608 -9.371963
607 609 2.122694
608 2 -0.496488
608 145 -0.019231
608 607 -8.24096
608 608 19.849619
608 609 -10.09294
609 2 -6.786392
609 607 1.036946
609 608 -9.408718
609 609 16.158165
610 2 -2.332247
610 175 -3.162165
610 610 10.819092
610 611 -4.609982
610 612 0.285303
611 2 -0.968045
611 149 -0.019231
611 610 -4.282167
611 611 11.781794
611 612 -5.512352
612 2 -6.60167
612 610 -0.018053
612 611 -5.283147
612 612 12.902869
613 2 -3.301621
613 171 -3.162165
613 613 14.713056
613 614 -9.371963
613 615 2.122694
614 2 -0.496488
614 145 -0.019231
614 613 -8.24096
614 614 19.849619
614 615 -10.09294
615 2 -6.786392
615 613 1.036946
615 614 -9.408718
615 615 16.158165
616 2 -2.332247
616 175 -3.162165
616 616 10.819092
616 617 -4.609982
616 618 0.285303
617 2 -0.968045
617 149 -0.019231
617 616 -4.282167
617 617 11.781794
617 618 -5.512352
618 2 -6.60167
618 616 -0.018053
618 617 -5.283147
618 618 12.902869
619 2 -3.301621
619 171 -3.162165
619 619 14.713056
619 620 -9.371963
619 621 2.122694
620 2 -0.496488
620 145 -0.019231
620 619 -8.24096
620 620 19.849619
620 621 -10.09294
621 2 -6.786392
621 619 1.036946
621 620 -9.408718
621 621 16.158165
622 2 -2.332247
622 175 -3.162165
622 622 10.819092
622 623 -4.609982
622 624 0.285303
623 2 -0.968045
623 149 -0.019231
623 622 -4.282167
623 623 11.781794
623 624 -5.512352
624 2 -6.60167
624 622 -0.018053
624 623 -5.283147
624 624 12.902869
625 2 -3.301621
625 171 -3.162165
625 625 14.713056
625 626 -9.371963
625 627 2.122694
626 2 -0.496488
626 145 -0.019231
626 625 -8.24096
626 626 19.849619
626 627 -10.09294
627 2 -6.786392
627 625 1.036946
627 626 -9.408718
627 627 16.158165
628 2 -2.332247
628 175 -3.162165
628 628 10.819092
628 629 -4.609982
628 630 0.285303
629 2 -0.968045
629 149 -0.019231
629 628 -4.282167
629 629 11.781794
629 630 -5.512352
630 2 -6.60167
630 628 -0.018053
630 629 -5.283147
630 630 12.902869
631 2 -3.301621
631 171 -3.162165
631 631 14.713056
631 632 -9.371963
631 633 2.122694
632 2 -0.496488
632 145 -0.019231
632 631 -8.24096
632 632 19.849619
632 633 -10.09294
633 2 -6.786392
633 631 1.036946
633 632 -9.408718
633 633 16.158165
634 2 -2.332247
634 175 -3.162165
634 634 10.819092
634 635 -4.609982
634 636 0.285303
635 2 -0.968045
635 149 -0.019231
635 634 -4.282167
635 635 11.781794
635 636 -5.512352
636 2 -6.60167
636 634 -0.018053
636 635 -5.283147
636 636 12.902869
637 2 -3.301621
637 171 -3.162165
637 637 14.713056
637 638 -9.371963
637 639 2.122694
638 2 -0.496488
638 145 -0.019231
638 637 -8.24096
638 638 19.849619
638 639 -10.09294
639 2 -6.786392
639 637 1.036946
639 638 -9.408718
639 639 16.158165
640 2 -2.332247
640 175 -3.162165
640 640 10.819092
640 641 -4.609982
640 642 0.285303
641 2 -0.968045
641 149 -0.019231
641 640 -4.282167
641 641 11.781794
641 642 -5.512352
642 2 -6.60167
642 640 -0.018053
642 641 -5.283147
642 642 12.902869
643 2 -5.385569
643 171 -2.052634
643 643 15.687706
643 644 -9.372056
643 645 2.122553
644 2 -0.496473
644 145 -0.019231
644 643 -8.241353
644 644 19.849763
644 645 -10.092706
645 2 -6.7864
645 643 1.03712
645 644 -9.408778
645 645 16.158059
646 2 -3.852006
646 175 -2.052634
646 646 11.22932
646 647 -4.609983
646 648 0.285302
647 2 -0.968045
647 149 -0.019231
647 646 -4.282168
647 647 11.781794
647 648 -5.512351
648 2 -6.60167
648 646 -0.018053
648 647 -5.283146
648 648 12.902868
649 1 -1.821349
649 5 -17.400369
649 46 -0.11236
649 649 20.334078
650 1 -1.821411
650 5 -17.326073
650 48 -0.11236
650 650 20.259844
651 1 -1.821349
651 5 -17.400369
651 46 -0.11236
651 651 20.334078
652 1 -1.821411
652 5 -17.326073
652 48 -0.11236
652 652 20.259844
653 1 -1.821349
653 5 -17.400369
653 46 -0.11236
653 653 20.334078
654 1 -1.821411
654 5 -17.326073
654 48 -0.11236
654 654 20.259844
655 1 -1.817101
655 5 -17.258209
655 51 -0.11236
655 655 20.187669
656 1 -1.817938
656 5 -17.412178
656 50 -0.11236
656 656 20.342475
657 1 -1.817101
657 5 -17.258209
657 51 -0.11236
657 657 20.187669
658 1 -1.817938
658 5 -17.412178
658 50 -0.11236
658 658 20.342475
659 1 -1.817101
659 5 -17.258209
659 51 -0.11236
659 659 20.187669
660 1 -1.817938
660 5 -17.412178
660 50 -0.11236
660 660 20.342475
661 46 -1.020408
661 661 2.020408
661 7580 -1.0
662 1 -19.606396
662 51 -27.7502
662 662 48.356596
663 1 -19.606396
663 46 -27.7502
663 663 48.356596
664 48 -1.020408
664 664 2.020408
664 7579 -1.0
665 1 -19.606396
665 50 -27.7502
665 665 48.356596
666 1 -19.606396
666 48 -27.7502
666 666 48.356596
667 667 5.385965
667 668 -4.385965
667 7577 -1.0
668 667 -4.385965
668 668 5.385965
668 7572 1.0
669 669 5.385965
669 670 -4.385965
669 7576 -1.0
670 669 -4.385965
670 670 5.385965
670 7569 1.0
671 671 5.385965
671 672 -4.385965
671 7575 -1.0
672 1 -16.8765
672 2 -9.244
672 4 -1.0705
672 5 -2.0275
672 671 -4.385965
672 672 155.606038
672 676 -34.3644
672 677 -57.346
672 1172 -0.091743
672 1175 -0.091743
672 1273 -0.11236
672 1275 -0.11236
672 1277 -0.11236
672 1285 -1.020408
672 1287 -27.7502
673 673 5.385965
673 674 -4.385965
673 7578 -1.0
674 1 -16.882
674 2 -9.139
674 4 -1.0705
674 5 -2.094
674 673 -4.385965
674 674 155.555538
674 675 -34.3639
674 678 -57.329
674 1178 -0.091743
674 1181 -0.091743
674 1274 -0.11236
674 1276 -0.11236
674 1278 -0.11236
674 1288 -1.020408
674 1290 -27.7502
675 1 -41.117
675 2 -16.5255
675 4 -25.0715
675 5 -2.03
675 6 -0.315
675 674 -34.3639
675 675 256.827596
675 676 -12.9405
675 678 -63.223
675 680 -0.045872
675 682 -0.789478
675 686 -0.045872
675 688 -1.216214
675 692 -0.045872
675 694 -1.216214
675 698 -0.045872
675 700 -1.216214
675 704 -0.045872
675 706 -1.216214
675 710 -0.045872
675 712 -1.216214
675 716 -0.045872
675 718 -1.216214
675 722 -0.045872
675 724 -1.216214
675 728 -0.045872
675 730 -1.216214
675 734 -0.045872
675 736 -1.216214
675 740 -0.045872
675 742 -1.216214
675 746 -0.045872
675 748 -1.216214
675 752 -0.045872
675 754 -1.216214
675 758 -0.045872
675 760 -1.216214
675 764 -0.045872
675 766 -1.216214
675 773 -1.522
675 863 -0.4245
675 867 -2.8285
675 1136 -0.045872
675 1138 -1.216214
675 1142 -0.045872
675 1144 -1.216214
675 1148 -0.045872
675 1150 -1.216214
675 1154 -0.045872
675 1156 -1.216214
675 1160 -0.045872
675 1162 -1.216214
675 1166 -0.045872
675 1168 -1.216214
675 1177 -0.608106
675 1180 -0.608106
675 1187 -0.021413
675 1193 -0.021413
675 1199 -0.021413
675 1205 -0.021413
675 1280 -0.11236
675 1282 -0.11236
675 1284 -0.11236
675 1289 -27.7502
675 7573 1.0
675 7577 1.0
676 1 -41.1965
676 2 -16.6505
676 4 -25.0385
676 5 -1.968
676 6 -0.31
676 672 -34.3644
676 675 -12.9405
676 676 256.913596
676 677 -63.2005
676 679 -0.789478
676 683 -0.045872
676 685 -1.216214
676 689 -0.045872
676 691 -1.216214
676 695 -0.045872
676 697 -1.216214
676 701 -0.045872
676 703 -1.216214
676 707 -0.045872
676 709 -1.216214
676 713 -0.045872
676 715 -1.216214
676 719 -0.045872
676 721 -1.216214
676 725 -0.045872
676 727 -1.216214
676 731 -0.045872
676 733 -1.216214
676 737 -0.045872
676 739 -1.216214
676 743 -0.045872
676 745 -1.216214
676 749 -0.045872
676 751 -1.216214
676 755 -0.045872
676 757 -1.216214
676 761 -0.045872
676 763 -1.216214
676 767 -0.045872
676 769 -1.522
676 863 -2.832
676 867 -0.4245
676 1135 -1.216214
676 1139 -0.045872
676 1141 -1.216214
676 1145 -0.045872
676 1147 -1.216214
676 1151 -0.045872
676 1153 -1.216214
676 1157 -0.045872
676 1159 -1.216214
676 1163 -0.045872
676 1165 -1.216214
676 1169 -0.045872
676 1171 -0.608106
676 1174 -0.608106
676 1184 -0.021413
676 1190 -0.021413
676 1196 -0.021413
676 1202 -0.021413
676 1279 -0.11236
676 1281 -0.11236
676 1283 -0.11236
676 1286 -27.7502
676 7574 1.0
676 7576 1.0
677 1 -132.8115
677 2 -194.2496
677 4 -52.4615
677 5 -55.2875
677 672 -57.346
677 676 -63.2005
677 677 557.2816
677 795 -0.4625
677 799 -0.4625
678 1 -132.228
678 2 -197.5526
678 4 -52.4615
678 5 -55.5525
678 674 -57.329
678 675 -63.223
678 678 560.4086
678 795 -0.531
678 799 -0.531
679 4 -2.000087
679 676 -0.789478
679 679 5.297375
679 680 -2.331373
679 681 0.823563
680 4 -0.372396
680 675 -0.045872
680 679 -1.519265
680 680 6.558417
680 681 -3.620884
681 4 -2.918489
681 679 -0.071979
681 680 -2.942202
681 681 6.932671
682 4 -2.442821
682 675 -0.789478
682 682 6.549911
682 683 -3.125392
682 684 0.807781
683 4 -0.225297
683 676 -0.045872
683 682 -2.463977
683 683 7.447049
683 684 -3.711903
684 4 -2.970381
684 682 0.161743
684 683 -3.204974
684 684 7.013612
685 4 -1.228813
685 676 -1.216214
685 685 4.952839
685 686 -2.331375
685 687 0.823562
686 4 -0.372396
686 675 -0.045872
686 685 -1.519268
686 686 6.558417
686 687 -3.620882
687 4 -2.91849
687 685 -0.071979
687 686 -2.9422
687 687 6.932669
688 4 -1.52315
688 675 -1.216214
688 688 6.056851
688 689 -3.125311
688 690 0.807823
689 4 -0.225313
689 676 -0.045872
689 688 -2.463813
689 689 7.446953
689 690 -3.711956
690 4 -2.970373
690 688 0.161674
690 689 -3.204935
690 690 7.013634
691 4 -1.228813
691 676 -1.216214
691 691 4.952839
691 692 -2.331375
691 693 0.823562
692 4 -0.372396
692 675 -0.045872
692 691 -1.519268
692 692 6.558417
692 693 -3.620882
693 4 -2.91849
693 691 -0.071979
693 692 -2.9422
693 693 6.932669
694 4 -1.52315
694 675 -1.216214
694 694 6.056851
694 695 -3.125311
694 696 0.807823
695 4 -0.225313
695 676 -0.045872
695 694 -2.463813
695 695 7.446953
695 696 -3.711956
696 4 -2.970373
696 694 0.161674
696 695 -3.204935
696 696 7.013634
697 4 -1.228813
697 676 -1.216214
697 697 4.952839
697 698 -2.331375
697 699 0.823562
698 4 -0.372396
698 675 -0.045872
698 697 -1.519268
698 698 6.558417
698 699 -3.620882
699 4 -2.91849
699 697 -0.071979
699 698 -2.9422
699 699 6.932669
700 4 -1.52315
700 675 -1.216214
700 700 6.056851
700 701 -3.125311
700 702 0.807823
701 4 -0.225313
701 676 -0.045872
701 700 -2.463813
701 701 7.446953
701 702 -3.711956
702 4 -2.970373
702 700 0.161674
702 701 -3.204935
702 702 7.013634
703 4 -1.228813
703 676 -1.216214
703 703 4.952839
703 704 -2.331375
703 705 0.823562
704 4 -0.372396
704 675 -0.045872
704 703 -1.519268
704 704 6.558417
704 705 -3.620882
705 4 -2.91849
705 703 -0.071979
705 704 -2.9422
705 705 6.932669
706 4 -1.52315
706 675 -1.216214
706 706 6.056851
706 707 -3.125311
706 708 0.807823
707 4 -0.225313
707 676 -0.045872
707 706 -2.463813
707 707 7.446953
707 708 -3.711956
708 4 -2.970373
708 706 0.161674
708 707 -3.204935
708 708 7.013634
709 4 -1.228813
709 676 -1.216214
709 709 4.952839
709 710 -2.331375
709 711 0.823562
710 4 -0.372396
710 675 -0.045872
710 709 -1.519268
710 710 6.558417
710 711 -3.620882
711 4 -2.91849
711 709 -0.071979
711 710 -2.9422
711 711 6.932669
712 4 -1.52315
712 675 -1.216214
712 712 6.056851
712 713 -3.125311
712 714 0.807823
713 4 -0.225313
713 676 -0.045872
713 712 -2.463813
713 713 7.446953
713 714 -3.711956
714 4 -2.970373
714 712 0.161674
714 713 -3.204935
714 714 7.013634
715 4 -1.228813
715 676 -1.216214
715 715 4.952839
715 716 -2.331375
715 717 0.823562
716 4 -0.372396
716 675 -0.045872
716 715 -1.519268
716 716 6.558417
716 717 -3.620882
717 4 -2.91849
717 715 -0.071979
717 716 -2.9422
717 717 6.932669
718 4 -1.52315
718 675 -1.216214
718 718 6.056851
718 719 -3.125311
718 720 0.807823
719 4 -0.225313
719 676 -0.045872
719 718 -2.463813
719 719 7.446953
719 720 -3.711956
720 4 -2.970373
720 718 0.161674
720 719 -3.204935
720 720 7.013634
721 4 -1.228813
721 676 -1.216214
721 721 4.952839
721 722 -2.331375
721 723 0.823562
722 4 -0.372396
722 675 -0.045872
722 721 -1.519268
722 722 6.558417
722 723 -3.620882
723 4 -2.91849
723 721 -0.071979
723 722 -2.9422
723 723 6.932669
724 4 -1.52315
724 675 -1.216214
724 724 6.056851
724 725 -3.125311
724 726 0.807823
725 4 -0.225313
725 676 -0.045872
725 724 -2.463813
725 725 7.446953
725 726 -3.711956
726 4 -2.970373
726 724 0.161674
726 725 -3.204935
726 726 7.013634
727 4 -1.228813
727 676 -1.216214
727 727 4.952839
727 728 -2.331375
727 729 0.823562
728 4 -0.372396
728 675 -0.045872
728 727 -1.519268
728 728 6.558417
728 729 -3.620882
729 4 -2.91849
729 727 -0.071979
729 728 -2.9422
729 729 6.932669
730 4 -1.52315
730 675 -1.216214
730 730 6.056851
730 731 -3.125311
730 732 0.807823
731 4 -0.225313
731 676 -0.045872
731 730 -2.463813
731 731 7.446953
731 732 -3.711956
732 4 -2.970373
732 730 0.161674
732 731 -3.204935
732 732 7.013634
733 4 -1.228813
733 676 -1.216214
733 733 4.952839
733 734 -2.331375
733 735 0.823562
734 4 -0.372396
734 675 -0.045872
734 733 -1.519268
734 734 6.558417
734 735 -3.620882
735 4 -2.91849
735 733 -0.071979
735 734 -2.9422
735 735 6.932669
736 4 -1.52315
736 675 -1.216214
736 736 6.056851
736 737 -3.125311
736 738 0.807823
737 4 -0.225313
737 676 -0.045872
737 736 -2.463813
737 737 7.446953
737 738 -3.711956
738 4 -2.970373
738 736 0.161674
738 737 -3.204935
738 738 7.013634
739 4 -1.228813
739 676 -1.216214
739 739 4.952839
739 740 -2.331375
739 741 0.823562
740 4 -0.372396
740 675 -0.045872
740 739 -1.519268
740 740 6.558417
740 741 -3.620882
741 4 -2.91849
741 739 -0.071979
741 740 -2.9422
741 741 6.932669
742 4 -1.52315
742 675 -1.216214
742 742 6.056851
742 743 -3.125311
742 744 0.807823
743 4 -0.225313
743 676 -0.045872
743 742 -2.463813
743 743 7.446953
743 744 -3.711956
744 4 -2.970373
744 742 0.161674
744 743 -3.204935
744 744 7.013634
745 4 -1.228813
745 676 -1.216214
745 745 4.952839
745 746 -2.331375
745 747 0.823562
746 4 -0.372396
746 675 -0.045872
746 745 -1.519268
746 746 6.558417
746 747 -3.620882
747 4 -2.91849
747 745 -0.071979
747 746 -2.9422
747 747 6.932669
748 4 -1.52315
748 675 -1.216214
748 748 6.056851
748 749 -3.125311
748 750 0.807823
749 4 -0.225313
749 676 -0.045872
749 748 -2.463813
749 749 7.446953
749 750 -3.711956
750 4 -2.970373
750 748 0.161674
750 749 -3.204935
750 750 7.013634
751 4 -1.228813
751 676 -1.216214
751 751 4.952839
751 752 -2.331375
751 753 0.823562
752 4 -0.372396
752 675 -0.045872
752 751 -1.519268
752 752 6.558417
752 753 -3.620882
753 4 -2.91849
753 751 -0.071979
753 752 -2.9422
753 753 6.932669
754 4 -1.52315
754 675 -1.216214
754 754 6.056851
754 755 -3.125311
754 756 0.807823
755 4 -0.225313
755 676 -0.045872
755 754 -2.463813
755 755 7.446953
755 756 -3.711956
756 4 -2.970373
756 754 0.161674
756 755 -3.204935
756 756 7.013634
757 4 -1.228813
757 676 -1.216214
757 757 4.952839
757 758 -2.331375
757 759 0.823562
758 4 -0.372396
758 675 -0.045872
758 757 -1.519268
758 758 6.558417
758 759 -3.620882
759 4 -2.91849
759 757 -0.071979
759 758 -2.9422
759 759 6.932669
760 4 -1.52315
760 675 -1.216214
760 760 6.056851
760 761 -3.125311
760 762 0.807823
761 4 -0.225313
761 676 -0.045872
761 760 -2.463813
761 761 7.446953
761 762 -3.711956
762 4 -2.970373
762 760 0.161674
762 761 -3.204935
762 762 7.013634
763 4 -1.22881
763 676 -1.216214
763 763 4.95284
763 764 -2.33136
763 765 0.823544
764 4 -0.372399
764 675 -0.045872
764 763 -1.519269
764 764 6.558385
764 765 -3.620846
765 4 -3.555529
765 763 -0.071978
765 764 -2.942177
765 765 7.569684
766 4 -1.523152
766 675 -1.216214
766 766 6.056874
766 767 -3.125326
766 768 0.807818
767 4 -0.225307
767 676 -0.045872
767 766 -2.463842
767 767 7.446972
767 768 -3.711951
768 4 -3.607358
768 766 0.161686
768 767 -3.204943
768 768 7.650615
769 1 -17.2055
769 2 -19.5265
769 4 -5.6965
769 6 -0.0405
769 676 -1.522
769 769 68.59008
769 770 -2.297298
769 777 -2.297298
769 783 -2.297298
769 789 -2.297298
769 795 -2.847
769 1183 -2.837837
769 1189 -2.837837
769 1195 -2.837837
769 1201 -2.837837
769 1208 -0.019231
769 1214 -0.019231
769 1220 -0.019231
769 1226 -0.019231
769 1232 -0.019231
769 1238 -0.019231
769 1244 -0.019231
769 1250 -0.019231
769 1256 -0.019231
769 1262 -0.019231
769 1268 -0.019231
770 4 -2.923292
770 769 -2.297298
770 770 11.478127
770 771 -6.67639
770 772 1.418853
771 2 -0.026455
771 4 -0.437942
771 770 -5.881094
771 771 14.451417
771 772 -7.105925
772 4 -6.646784
772 770 0.849268
772 771 -6.701492
772 772 13.499008
773 1 -17.185
773 2 -19.5575
773 4 -5.6545
773 6 -0.0345
773 675 -1.522
773 773 68.55008
773 774 -2.297298
773 780 -2.297298
773 786 -2.297298
773 792 -2.297298
773 799 -2.8445
773 1186 -2.837837
773 1192 -2.837837
773 1198 -2.837837
773 1204 -2.837837
773 1211 -0.019231
773 1217 -0.019231
773 1223 -0.019231
773 1229 -0.019231
773 1235 -0.019231
773 1241 -0.019231
773 1247 -0.019231
773 1253 -0.019231
773 1259 -0.019231
773 1265 -0.019231
773 1271 -0.019231
774 4 -2.218674
774 773 -2.297298
774 774 8.875989
774 775 -5.338452
774 776 1.978435
775 2 -0.026455
775 4 -0.633248
775 774 -3.477493
775 775 12.959048
775 776 -7.821852
776 4 -6.535222
776 774 -0.096992
776 775 -6.150919
776 776 13.783133
777 4 -2.923289
777 769 -2.297298
777 777 11.478085
777 778 -6.676372
777 779 1.418874
778 2 -0.026455
778 4 -0.437955
778 777 -5.881028
778 778 14.451394
778 779 -7.105956
779 4 -5.539635
779 777 0.849236
779 778 -6.701481
779 779 12.39188
780 4 -2.218685
780 773 -2.297298
780 780 8.875991
780 781 -5.338449
780 782 1.978441
781 2 -0.026455
781 4 -0.633245
781 780 -3.477499
781 781 12.959057
781 782 -7.821858
782 4 -5.428319
782 780 -0.096988
782 781 -6.150918
782 782 12.676225
783 4 -2.923289
783 769 -2.297298
783 783 11.478085
783 784 -6.676372
783 785 1.418874
784 2 -0.026455
784 4 -0.437955
784 783 -5.881028
784 784 14.451394
784 785 -7.105956
785 4 -5.539635
785 783 0.849236
785 784 -6.701481
785 785 12.39188
786 4 -2.218685
786 773 -2.297298
786 786 8.875991
786 787 -5.338449
786 788 1.978441
787 2 -0.026455
787 4 -0.633245
787 786 -3.477499
787 787 12.959057
787 788 -7.821858
788 4 -5.428319
788 786 -0.096988
788 787 -6.150918
788 788 12.676225
789 4 -2.923292
789 769 -2.297298
789 789 11.478127
789 790 -6.67639
789 791 1.418853
790 2 -0.026455
790 4 -0.437942
790 789 -5.881094
790 790 14.451417
790 791 -7.105925
791 4 -6.646784
791 789 0.849268
791 790 -6.701492
791 791 13.499008
792 4 -2.218674
792 773 -2.297298
792 792 8.875989
792 793 -5.338452
792 794 1.978435
793 2 -0.026455
793 4 -0.633248
793 792 -3.477493
793 793 12.959048
793 794 -7.821852
794 4 -6.535222
794 792 -0.096992
794 793 -6.150919
794 794 13.783133
795 1 -20.1005
795 2 -250.3055
795 4 -27.4455
795 5 -0.347
795 6 -0.454
795 677 -0.4625
795 678 -0.531
795 769 -2.847
795 795 368.2527
795 796 -1.754386
795 799 -2.304
795 803 -2.702703
795 809 -2.702703
795 815 -2.702703
795 821 -2.702703
795 827 -2.702703
795 833 -2.702703
795 839 -2.702703
795 845 -2.702703
795 851 -2.702703
795 857 -2.702703
795 1207 -3.162165
795 1213 -3.162165
795 1219 -3.162165
795 1225 -3.162165
795 1231 -3.162165
795 1237 -3.162165
795 1243 -3.162165
795 1249 -3.162165
795 1255 -3.162165
795 1261 -3.162165
795 1267 -2.052634
796 4 -4.204554
796 795 -1.754386
796 796 10.936775
796 797 -6.306501
796 798 2.328665
797 2 -0.022523
797 4 -0.739604
797 796 -4.118931
797 797 15.087115
797 798 -9.206057
798 4 -6.353765
798 796 -0.108508
798 797 -7.24176
798 798 14.704033
799 1 -17.0165
799 2 -252.185
799 4 -27.7895
799 5 -0.347
799 6 -0.4565
799 677 -0.4625
799 678 -0.531
799 773 -2.8445
799 795 -2.304
799 799 367.3922
799 800 -1.754386
799 806 -2.702703
799 812 -2.702703
799 818 -2.702703
799 824 -2.702703
799 830 -2.702703
799 836 -2.702703
799 842 -2.702703
799 848 -2.702703
799 854 -2.702703
799 860 -2.702703
799 1210 -3.162165
799 1216 -3.162165
799 1222 -3.162165
799 1228 -3.162165
799 1234 -3.162165
799 1240 -3.162165
799 1246 -3.162165
799 1252 -3.162165
799 1258 -3.162165
799 1264 -3.162165
799 1270 -2.052634
800 4 -5.700242
800 799 -1.754386
800 800 14.831218
800 801 -7.917818
800 802 1.541228
801 2 -0.022523
801 4 -0.488185
801 800 -7.242042
801 801 16.899944
801 802 -8.147194
802 4 -6.50827
802 800 1.176325
802 801 -7.926706
802 802 14.25865
803 4 -2.60646
803 795 -2.702703
803 803 10.286913
803 804 -6.306415
803 805 2.328665
804 2 -0.022523
804 4 -0.739619
804 803 -4.118835
804 804 15.087028
804 805 -9.206051
805 4 -6.353757
805 803 -0.10853
805 804 -7.241741
805 805 14.704028
806 4 -3.600591
806 799 -2.702703
806 806 13.679864
806 807 -7.917813
806 808 1.541243
807 2 -0.022523
807 4 -0.488188
807 806 -7.242007
807 807 16.899937
807 808 -8.14722
808 4 -6.508267
808 806 1.176305
808 807 -7.926702
808 808 14.258664
809 4 -2.60646
809 795 -2.702703
809 809 10.286913
809 810 -6.306415
809 811 2.328665
810 2 -0.022523
810 4 -0.739619
810 809 -4.118835
810 810 15.087028
810 811 -9.206051
811 4 -6.353757
811 809 -0.10853
811 810 -7.241741
811 811 14.704028
812 4 -3.600591
812 799 -2.702703
812 812 13.679864
812 813 -7.917813
812 814 1.541243
813 2 -0.022523
813 4 -0.488188
813 812 -7.242007
813 813 16.899937
813 814 -8.14722
814 4 -6.508267
814 812 1.176305
814 813 -7.926702
814 814 14.258664
815 4 -2.60646
815 795 -2.702703
815 815 10.286913
815 816 -6.306415
815 817 2.328665
816 2 -0.022523
816 4 -0.739619
816 815 -4.118835
816 816 15.087028
816 817 -9.206051
817 4 -6.353757
817 815 -0.10853
817 816 -7.241741
817 817 14.704028
818 4 -3.600591
818 799 -2.702703
818 818 13.679864
818 819 -7.917813
818 820 1.541243
819 2 -0.022523
819 4 -0.488188
819 818 -7.242007
819 819 16.899937
819 820 -8.14722
820 4 -6.508267
820 818 1.176305
820 819 -7.926702
820 820 14.258664
821 4 -2.60646
821 795 -2.702703
821 821 10.286913
821 822 -6.306415
821 823 2.328665
822 2 -0.022523
822 4 -0.739619
822 821 -4.118835
822 822 15.087028
822 823 -9.206051
823 4 -6.353757
823 821 -0.10853
823 822 -7.241741
823 823 14.704028
824 4 -3.600591
824 799 -2.702703
824 824 13.679864
824 825 -7.917813
824 826 1.541243
825 2 -0.022523
825 4 -0.488188
825 824 -7.242007
825 825 16.899937
825 826 -8.14722
826 4 -6.508267
826 824 1.176305
826 825 -7.926702
826 826 14.258664
827 4 -2.60646
827 795 -2.702703
827 827 10.286913
827 828 -6.306415
827 829 2.328665
828 2 -0.022523
828 4 -0.739619
828 827 -4.118835
828 828 15.087028
828 829 -9.206051
829 4 -6.353757
829 827 -0.10853
829 828 -7.241741
829 829 14.704028
830 4 -3.600591
830 799 -2.702703
830 830 13.679864
830 831 -7.917813
830 832 1.541243
831 2 -0.022523
831 4 -0.488188
831 830 -7.242007
831 831 16.899937
831 832 -8.14722
832 4 -6.508267
832 830 1.176305
832 831 -7.926702
832 832 14.258664
833 4 -2.60646
833 795 -2.702703
833 833 10.286913
833 834 -6.306415
833 835 2.328665
834 2 -0.022523
834 4 -0.739619
834 833 -4.118835
834 834 15.087028
834 835 -9.206051
835 4 -6.353757
835 833 -0.10853
835 834 -7.241741
835 835 14.704028
836 4 -3.600591
836 799 -2.702703
836 836 13.679864
836 837 -7.917813
836 838 1.541243
837 2 -0.022523
837 4 -0.488188
837 836 -7.242007
837 837 16.899937
837 838 -8.14722
838 4 -6.508267
838 836 1.176305
838 837 -7.926702
838 838 14.258664
839 4 -2.60646
839 795 -2.702703
839 839 10.286913
839 840 -6.306415
839 841 2.328665
840 2 -0.022523
840 4 -0.739619
840 839 -4.118835
840 840 15.087028
840 841 -9.206051
841 4 -6.353757
841 839 -0.10853
841 840 -7.241741
841 841 14.704028
842 4 -3.600591
842 799 -2.702703
842 842 13.679864
842 843 -7.917813
842 844 1.541243
843 2 -0.022523
843 4 -0.488188
843 842 -7.242007
843 843 16.899937
843 844 -8.14722
844 4 -6.508267
844 842 1.176305
844 843 -7.926702
844 844 14.258664
845 4 -2.60646
845 795 -2.702703
845 845 10.286913
845 846 -6.306415
845 847 2.328665
846 2 -0.022523
846 4 -0.739619
846 845 -4.118835
846 846 15.087028
846 847 -9.206051
847 4 -6.353757
847 845 -0.10853
847 846 -7.241741
847 847 14.704028
848 4 -3.600591
848 799 -2.702703
848 848 13.679864
848 849 -7.917813
848 850 1.541243
849 2 -0.022523
849 4 -0.488188
849 848 -7.242007
849 849 16.899937
849 850 -8.14722
850 4 -6.508267
850 848 1.176305
850 849 -7.926702
850 850 14.258664
851 4 -2.60646
851 795 -2.702703
851 851 10.286913
851 852 -6.306415
851 853 2.328665
852 2 -0.022523
852 4 -0.739619
852 851 -4.118835
852 852 15.087028
852 853 -9.206051
853 4 -6.353757
853 851 -0.10853
853 852 -7.241741
853 853 14.704028
854 4 -3.600591
854 799 -2.702703
854 854 13.679864
854 855 -7.917813
854 856 1.541243
855 2 -0.022523
855 4 -0.488188
855 854 -7.242007
855 855 16.899937
855 856 -8.14722
856 4 -6.508267
856 854 1.176305
856 855 -7.926702
856 856 14.258664
857 4 -2.606447
857 795 -2.702703
857 857 10.286912
857 858 -6.30642
857 859 2.328657
858 2 -0.022523
858 4 -0.739622
858 857 -4.118829
858 858 15.087019
858 859 -9.206045
859 4 -7.636946
859 857 -0.108535
859 858 -7.241742
859 859 15.987223
860 4 -3.600592
860 799 -2.702703
860 860 13.679886
860 861 -7.917819
860 862 1.541228
861 2 -0.022523
861 4 -0.488179
861 860 -7.242046
861 861 16.899946
861 862 -8.147197
862 4 -7.791833
862 860 1.176326
862 861 -7.926707
862 862 15.542213
863 1 -15.837
863 2 -74.9745
863 4 -1.555
863 6 -11.935
863 675 -0.4245
863 676 -2.832
863 863 296.098563
863 864 -4.054065
863 867 -0.03
863 871 -4.054065
863 877 -4.054065
863 883 -4.054065
863 889 -4.054065
863 895 -4.054065
863 901 -4.054065
863 907 -4.054065
863 913 -4.054065
863 919 -4.054065
863 925 -4.054065
863 931 -4.054065
863 937 -4.054065
863 943 -4.054065
863 949 -4.054065
863 955 -4.054065
863 961 -4.054065
863 967 -4.054065
863 973 -4.054065
863 979 -4.054065
863 985 -4.054065
863 991 -4.054065
863 997 -4.054065
863 1003 -4.054065
863 1009 -4.054065
863 1015 -4.054065
863 1021 -4.054065
863 1027 -4.054065
863 1033 -4.054065
863 1039 -4.054065
863 1045 -4.054065
863 1051 -4.054065
863 1057 -4.054065
863 1063 -4.054065
863 1069 -4.054065
863 1075 -4.054065
863 1081 -4.054065
863 1087 -4.054065
863 1093 -4.054065
863 1099 -4.054065
863 1105 -4.054065
863 1111 -4.054065
863 1117 -4.054065
863 1123 -4.054065
863 1129 -2.674898
863 1137 -0.802472
863 1143 -1.216214
863 1149 -1.216214
863 1155 -1.216214
863 1161 -1.216214
863 1167 -0.789478
864 2 -4.541766
864 863 -4.054065
864 864 18.627783
864 865 -11.205858
864 866 2.173906
865 2 -0.551792
865 6 -0.013755
865 864 -10.285278
865 865 23.503665
865 866 -11.652841
866 2 -10.147527
866 864 1.336589
866 865 -11.211734
866 866 21.022672
867 1 -15.7255
867 2 -75.113
867 4 -1.5575
867 6 -11.9355
867 675 -2.8285
867 676 -0.4245
867 863 -0.03
867 867 296.125063
867 868 -4.054065
867 874 -4.054065
867 880 -4.054065
867 886 -4.054065
867 892 -4.054065
867 898 -4.054065
867 904 -4.054065
867 910 -4.054065
867 916 -4.054065
867 922 -4.054065
867 928 -4.054065
867 934 -4.054065
867 940 -4.054065
867 946 -4.054065
867 952 -4.054065
867 958 -4.054065
867 964 -4.054065
867 970 -4.054065
867 976 -4.054065
867 982 -4.054065
867 988 -4.054065
867 994 -4.054065
867 1000 -4.054065
867 1006 -4.054065
867 1012 -4.054065
867 1018 -4.054065
867 1024 -4.054065
867 1030 -4.054065
867 1036 -4.054065
867 1042 -4.054065
867 1048 -4.054065
867 1054 -4.054065
867 1060 -4.054065
867 1066 -4.054065
867 1072 -4.054065
867 1078 -4.054065
867 1084 -4.054065
867 1090 -4.054065
867 1096 -4.054065
867 1102 -4.054065
867 1108 -4.054065
867 1114 -4.054065
867 1120 -4.054065
867 1126 -4.054065
867 1132 -2.674898
867 1140 -0.802472
867 1146 -1.216214
867 1152 -1.216214
867 1158 -1.216214
867 1164 -1.216214
867 1170 -0.789478
868 2 -4.568487
868 867 -4.054065
868 868 18.705164
868 869 -11.21702
868 870 2.134408
869 2 -0.549864
869 6 -0.013755
869 868 -10.372941
869 869 23.519395
869 870 -11.582835
870 2 -10.148565
870 868 1.3782
870 869 -11.217359
870 870 20.987723
871 2 -4.541766
871 863 -4.054065
871 871 18.62777
871 872 -11.205854
871 873 2.173916
872 2 -0.551793
872 6 -0.013755
872 871 -10.285254
872 872 23.50366
872 873 -11.652858
873 2 -8.623241
873 871 1.336577
873 872 -11.211732
873 873 19.498396
874 2 -4.568487
874 867 -4.054065
874 874 18.705163
874 875 -11.21702
874 876 2.134409
875 2 -0.549864
875 6 -0.013755
875 874 -10.372939
875 875 23.519395
875 876 -11.582836
876 2 -8.624252
876 874 1.3782
876 875 -11.217359
876 876 19.463412
877 2 -4.541766
877 863 -4.054065
877 877 18.62777
877 878 -11.205854
877 879 2.173916
878 2 -0.551793
878 6 -0.013755
878 877 -10.285254
878 878 23.50366
878 879 -11.652858
879 2 -8.623241
879 877 1.336577
879 878 -11.211732
879 879 19.498396
880 2 -4.568487
880 867 -4.054065
880 880 18.705163
880 881 -11.21702
880 882 2.134409
881 2 -0.549864
881 6 -0.013755
881 880 -10.372939
881 881 23.519395
881 882 -11.582836
882 2 -8.624252
882 880 1.3782
882 881 -11.217359
882 882 19.463412
883 2 -4.541766
883 863 -4.054065
883 883 18.62777
883 884 -11.205854
883 885 2.173916
884 2 -0.551793
884 6 -0.013755
884 883 -10.285254
884 884 23.50366
884 885 -11.652858
885 2 -8.623241
885 883 1.336577
885 884 -11.211732
885 885 19.498396
886 2 -4.568487
886 867 -4.054065
886 886 18.705163
886 887 -11.21702
886 888 2.134409
887 2 -0.549864
887 6 -0.013755
887 886 -10.372939
887 887 23.519395
887 888 -11.582836
888 2 -8.624252
888 886 1.3782
888 887 -11.217359
888 888 19.463412
889 2 -4.541766
889 863 -4.054065
889 889 18.62777
889 890 -11.205854
889 891 2.173916
890 2 -0.551793
890 6 -0.013755
890 889 -10.285254
890 890 23.50366
890 891 -11.652858
891 2 -8.623241
891 889 1.336577
891 890 -11.211732
891 891 19.498396
892 2 -4.568487
892 867 -4.054065
892 892 18.705163
892 893 -11.21702
892 894 2.134409
893 2 -0.549864
893 6 -0.013755
893 892 -10.372939
893 893 23.519395
893 894 -11.582836
894 2 -8.624252
894 892 1.3782
894 893 -11.217359
894 894 19.463412
895 2 -4.541766
895 863 -4.054065
895 895 18.62777
895 896 -11.205854
895 897 2.173916
896 2 -0.551793
896 6 -0.013755
896 895 -10.285254
896 896 23.50366
896 897 -11.652858
897 2 -8.623241
897 895 1.336577
897 896 -11.211732
897 897 19.498396
898 2 -4.568487
898 867 -4.054065
898 898 18.705163
898 899 -11.21702
898 900 2.134409
899 2 -0.549864
899 6 -0.013755
899 898 -10.372939
899 899 23.519395
899 900 -11.582836
900 2 -8.624252
900 898 1.3782
900 899 -11.217359
900 900 19.463412
901 2 -4.541766
901 863 -4.054065
901 901 18.62777
901 902 -11.205854
901 903 2.173916
902 2 -0.551793
902 6 -0.013755
902 901 -10.285254
902 902 23.50366
902 903 -11.652858
903 2 -8.623241
903 901 1.336577
903 902 -11.211732
903 903 19.498396
904 2 -4.568487
904 867 -4.054065
904 904 18.705163
904 905 -11.21702
904 906 2.134409
905 2 -0.549864
905 6 -0.013755
905 904 -10.372939
905 905 23.519395
905 906 -11.582836
906 2 -8.624252
906 904 1.3782
906 905 -11.217359
906 906 19.463412
907 2 -4.541766
907 863 -4.054065
907 907 18.62777
907 908 -11.205854
907 909 2.173916
908 2 -0.551793
908 6 -0.013755
908 907 -10.285254
908 908 23.50366
908 909 -11.652858
909 2 -8.623241
909 907 1.336577
909 908 -11.211732
909 909 19.498396
910 2 -4.568487
910 867 -4.054065
910 910 18.705163
910 911 -11.21702
910 912 2.134409
911 2 -0.549864
911 6 -0.013755
911 910 -10.372939
911 911 23.519395
911 912 -11.582836
912 2 -8.624252
912 910 1.3782
912 911 -11.217359
912 912 19.463412
913 2 -4.541766
913 863 -4.054065
913 913 18.62777
913 914 -11.205854
913 915 2.173916
914 2 -0.551793
914 6 -0.013755
914 913 -10.285254
914 914 23.50366
914 915 -11.652858
915 2 -8.623241
915 913 1.336577
915 914 -11.211732
915 915 19.498396
916 2 -4.568487
916 867 -4.054065
916 916 18.705163
916 917 -11.21702
916 918 2.134409
917 2 -0.549864
917 6 -0.013755
917 916 -10.372939
917 917 23.519395
917 918 -11.582836
918 2 -8.624252
918 916 1.3782
918 917 -11.217359
918 918 19.463412
919 2 -4.541766
919 863 -4.054065
919 919 18.62777
919 920 -11.205854
919 921 2.173916
920 2 -0.551793
920 6 -0.013755
920 919 -10.285254
920 920 23.50366
920 921 -11.652858
921 2 -8.623241
921 919 1.336577
921 920 -11.211732
921 921 19.498396
922 2 -4.568487
922 867 -4.054065
922 922 18.705163
922 923 -11.21702
922 924 2.134409
923 2 -0.549864
923 6 -0.013755
923 922 -10.372939
923 923 23.519395
923 924 -11.582836
924 2 -8.624252
924 922 1.3782
924 923 -11.217359
924 924 19.463412
925 2 -4.541766
925 863 -4.054065
925 925 18.62777
925 926 -11.205854
925 927 2.173916
926 2 -0.551793
926 6 -0.013755
926 925 -10.285254
926 926 23.50366
926 927 -11.652858
927 2 -8.623241
927 925 1.336577
927 926 -11.211732
927 927 19.498396
928 2 -4.568487
928 867 -4.054065
928 928 18.705163
928 929 -11.21702
928 930 2.134409
929 2 -0.549864
929 6 -0.013755
929 928 -10.372939
929 929 23.519395
929 930 -11.582836
930 2 -8.624252
930 928 1.3782
930 929 -11.217359
930 930 19.463412
931 2 -4.541766
931 863 -4.054065
931 931 18.62777
931 932 -11.205854
931 933 2.173916
932 2 -0.551793
932 6 -0.013755
932 931 -10.285254
932 932 23.50366
932 933 -11.652858
933 2 -8.623241
933 931 1.336577
933 932 -11.211732
933 933 19.498396
934 2 -4.568487
934 867 -4.054065
934 934 18.705163
934 935 -11.21702
934 936 2.134409
935 2 -0.549864
935 6 -0.013755
935 934 -10.372939
935 935 23.519395
935 936 -11.582836
936 2 -8.624252
936 934 1.3782
936 935 -11.217359
936 936 19.463412
937 2 -4.541766
937 863 -4.054065
937 937 18.62777
937 938 -11.205854
937 939 2.173916
938 2 -0.551793
938 6 -0.013755
938 937 -10.285254
938 938 23.50366
938 939 -11.652858
939 2 -8.623241
939 937 1.336577
939 938 -11.211732
939 939 19.498396
940 2 -4.568487
940 867 -4.054065
940 940 18.705163
940 941 -11.21702
940 942 2.134409
941 2 -0.549864
941 6 -0.013755
941 940 -10.372939
941 941 23.519395
941 942 -11.582836
942 2 -8.624252
942 940 1.3782
942 941 -11.217359
942 942 19.463412
943 2 -4.541766
943 863 -4.054065
943 943 18.62777
943 944 -11.205854
943 945 2.173916
944 2 -0.551793
944 6 -0.013755
944 943 -10.285254
944 944 23.50366
944 945 -11.652858
945 2 -8.623241
945 943 1.336577
945 944 -11.211732
945 945 19.498396
946 2 -4.568487
946 867 -4.054065
946 946 18.705163
946 947 -11.21702
946 948 2.134409
947 2 -0.549864
947 6 -0.013755
947 946 -10.372939
947 947 23.519395
947 948 -11.582836
948 2 -8.624252
948 946 1.3782
948 947 -11.217359
948 948 19.463412
949 2 -4.541766
949 863 -4.054065
949 949 18.62777
949 950 -11.205854
949 951 2.173916
950 2 -0.551793
950 6 -0.013755
950 949 -10.285254
950 950 23.50366
950 951 -11.652858
951 2 -8.623241
951 949 1.336577
951 950 -11.211732
951 951 19.498396
952 2 -4.568487
952 867 -4.054065
952 952 18.705163
952 953 -11.21702
952 954 2.134409
953 2 -0.549864
953 6 -0.013755
953 952 -10.372939
953 953 23.519395
953 954 -11.582836
954 2 -8.624252
954 952 1.3782
954 953 -11.217359
954 954 19.463412
955 2 -4.541766
955 863 -4.054065
955 955 18.62777
955 956 -11.205854
955 957 2.173916
956 2 -0.551793
956 6 -0.013755
956 955 -10.285254
956 956 23.50366
956 957 -11.652858
957 2 -8.623241
957 955 1.336577
957 956 -11.211732
957 957 19.498396
958 2 -4.568487
958 867 -4.054065
958 958 18.705163
958 959 -11.21702
958 960 2.134409
959 2 -0.549864
959 6 -0.013755
959 958 -10.372939
959 959 23.519395
959 960 -11.582836
960 2 -8.624252
960 958 1.3782
960 959 -11.217359
960 960 19.463412
961 2 -4.541766
961 863 -4.054065
961 961 18.62777
961 962 -11.205854
961 963 2.173916
962 2 -0.551793
962 6 -0.013755
962 961 -10.285254
962 962 23.50366
962 963 -11.652858
963 2 -8.623241
963 961 1.336577
963 962 -11.211732
963 963 19.498396
964 2 -4.568487
964 867 -4.054065
964 964 18.705163
964 965 -11.21702
964 966 2.134409
965 2 -0.549864
965 6 -0.013755
965 964 -10.372939
965 965 23.519395
965 966 -11.582836
966 2 -8.624252
966 964 1.3782
966 965 -11.217359
966 966 19.463412
967 2 -4.541766
967 863 -4.054065
967 967 18.62777
967 968 -11.205854
967 969 2.173916
968 2 -0.551793
968 6 -0.013755
968 967 -10.285254
968 968 23.50366
968 969 -11.652858
969 2 -8.623241
969 967 1.336577
969 968 -11.211732
969 969 19.498396
970 2 -4.568487
970 867 -4.054065
970 970 18.705163
970 971 -11.21702
970 972 2.134409
971 2 -0.549864
971 6 -0.013755
971 970 -10.372939
971 971 23.519395
971 972 -11.582836
972 2 -8.624252
972 970 1.3782
972 971 -11.217359
972 972 19.463412
973 2 -4.541766
973 863 -4.054065
973 973 18.62777
973 974 -11.205854
973 975 2.173916
974 2 -0.551793
974 6 -0.013755
974 973 -10.285254
974 974 23.50366
974 975 -11.652858
975 2 -8.623241
975 973 1.336577
975 974 -11.211732
975 975 19.498396
976 2 -4.568487
976 867 -4.054065
976 976 18.705163
976 977 -11.21702
976 978 2.134409
977 2 -0.549864
977 6 -0.013755
977 976 -10.372939
977 977 23.519395
977 978 -11.582836
978 2 -8.624252
978 976 1.3782
978 977 -11.217359
978 978 19.463412
979 2 -4.541766
979 863 -4.054065
979 979 18.62777
979 980 -11.205854
979 981 2.173916
980 2 -0.551793
980 6 -0.013755
980 979 -10.285254
980 980 23.50366
980 981 -11.652858
981 2 -8.623241
981 979 1.336577
981 980 -11.211732
981 981 19.498396
982 2 -4.568487
982 867 -4.054065
982 982 18.705163
982 983 -11.21702
982 984 2.134409
983 2 -0.549864
983 6 -0.013755
983 982 -10.372939
983 983 23.519395
983 984 -11.582836
984 2 -8.624252
984 982 1.3782
984 983 -11.217359
984 984 19.463412
985 2 -4.541766
985 863 -4.054065
985 985 18.62777
985 986 -11.205854
985 987 2.173916
986 2 -0.551793
986 6 -0.013755
986 985 -10.285254
986 986 23.50366
986 987 -11.652858
987 2 -8.623241
987 985 1.336577
987 986 -11.211732
987 987 19.498396
988 2 -4.568487
988 867 -4.054065
988 988 18.705163
988 989 -11.21702
988 990 2.134409
989 2 -0.549864
989 6 -0.013755
989 988 -10.372939
989 989 23.519395
989 990 -11.582836
990 2 -8.624252
990 988 1.3782
990 989 -11.217359
990 990 19.463412
991 2 -4.541766
991 863 -4.054065
991 991 18.62777
991 992 -11.205854
991 993 2.173916
992 2 -0.551793
992 6 -0.013755
992 991 -10.285254
992 992 23.50366
992 993 -11.652858
993 2 -8.623241
993 991 1.336577
993 992 -11.211732
993 993 19.498396
994 2 -4.568487
994 867 -4.054065
994 994 18.705163
994 995 -11.21702
994 996 2.134409
995 2 -0.549864
995 6 -0.013755
995 994 -10.372939
995 995 23.519395
995 996 -11.582836
996 2 -8.624252
996 994 1.3782
996 995 -11.217359
996 996 19.463412
997 2 -4.541766
997 863 -4.054065
997 997 18.62777
997 998 -11.205854
997 999 2.173916
998 2 -0.551793
998 6 -0.013755
998 997 -10.285254
998 998 23.50366
998 999 -11.652858
999 2 -8.623241
999 997 1.336577
999 998 -11.211732
999 999 19.498396
1000 2 -4.568487
1000 867 -4.054065
1000 1000 18.705163
1000 1001 -11.21702
1000 1002 2.134409
1001 2 -0.549864
1001 6 -0.013755
1001 1000 -10.372939
1001 1001 23.519395
1001 1002 -11.582836
1002 2 -8.624252
1002 1000 1.3782
1002 1001 -11.217359
1002 1002 19.463412
1003 2 -4.541766
1003 863 -4.054065
1003 1003 18.62777
1003 1004 -11.205854
1003 1005 2.173916
1004 2 -0.551793
1004 6 -0.013755
1004 1003 -10.285254
1004 1004 23.50366
1004 1005 -11.652858
1005 2 -8.623241
1005 1003 1.336577
1005 1004 -11.211732
1005 1005 19.498396
1006 2 -4.568487
1006 867 -4.054065
1006 1006 18.705163
1006 1007 -11.21702
1006 1008 2.134409
1007 2 -0.549864
1007 6 -0.013755
1007 1006 -10.372939
1007 1007 23.519395
1007 1008 -11.582836
1008 2 -8.624252
1008 1006 1.3782
1008 1007 -11.217359
1008 1008 19.463412
1009 2 -4.541766
1009 863 -4.054065
1009 1009 18.62777
1009 1010 -11.205854
1009 1011 2.173916
1010 2 -0.551793
1010 6 -0.013755
1010 1009 -10.285254
1010 1010 23.50366
1010 1011 -11.652858
1011 2 -8.623241
1011 1009 1.336577
1011 1010 -11.211732
1011 1011 19.498396
1012 2 -4.568487
1012 867 -4.054065
1012 1012 18.705163
1012 1013 -11.21702
1012 1014 2.134409
1013 2 -0.549864
1013 6 -0.013755
1013 1012 -10.372939
1013 1013 23.519395
1013 1014 -11.582836
1014 2 -8.624252
1014 1012 1.3782
1014 1013 -11.217359
1014 1014 19.463412
1015 2 -4.541766
1015 863 -4.054065
1015 1015 18.62777
1015 1016 -11.205854
1015 1017 2.173916
1016 2 -0.551793
1016 6 -0.013755
1016 1015 -10.285254
1016 1016 23.50366
1016 1017 -11.652858
1017 2 -8.623241
1017 1015 1.336577
1017 1016 -11.211732
1017 1017 19.498396
1018 2 -4.568487
1018 867 -4.054065
1018 1018 18.705163
1018 1019 -11.21702
1018 1020 2.134409
1019 2 -0.549864
1019 6 -0.013755
1019 1018 -10.372939
1019 1019 23.519395
1019 1020 -11.582836
1020 2 -8.624252
1020 1018 1.3782
1020 1019 -11.217359
1020 1020 19.463412
1021 2 -4.541766
1021 863 -4.054065
1021 1021 18.62777
1021 1022 -11.205854
1021 1023 2.173916
1022 2 -0.551793
1022 6 -0.013755
1022 1021 -10.285254
1022 1022 23.50366
1022 1023 -11.652858
1023 2 -8.623241
1023 1021 1.336577
1023 1022 -11.211732
1023 1023 19.498396
1024 2 -4.568487
1024 867 -4.054065
1024 1024 18.705163
1024 1025 -11.21702
1024 1026 2.134409
1025 2 -0.549864
1025 6 -0.013755
1025 1024 -10.372939
1025 1025 23.519395
1025 1026 -11.582836
1026 2 -8.624252
1026 1024 1.3782
1026 1025 -11.217359
1026 1026 19.463412
1027 2 -4.541766
1027 863 -4.054065
1027 1027 18.62777
1027 1028 -11.205854
1027 1029 2.173916
1028 2 -0.551793
1028 6 -0.013755
1028 1027 -10.285254
1028 1028 23.50366
1028 1029 -11.652858
1029 2 -8.623241
1029 1027 1.336577
1029 1028 -11.211732
1029 1029 19.498396
1030 2 -4.568487
1030 867 -4.054065
1030 1030 18.705163
1030 1031 -11.21702
1030 1032 2.134409
1031 2 -0.549864
1031 6 -0.013755
1031 1030 -10.372939
1031 1031 23.519395
1031 1032 -11.582836
1032 2 -8.624252
1032 1030 1.3782
1032 1031 -11.217359
1032 1032 19.463412
1033 2 -4.541766
1033 863 -4.054065
1033 1033 18.62777
1033 1034 -11.205854
1033 1035 2.173916
1034 2 -0.551793
1034 6 -0.013755
1034 1033 -10.285254
1034 1034 23.50366
1034 1035 -11.652858
1035 2 -8.623241
1035 1033 1.336577
1035 1034 -11.211732
1035 1035 19.498396
1036 2 -4.568487
1036 867 -4.054065
1036 1036 18.705163
1036 1037 -11.21702
1036 1038 2.134409
1037 2 -0.549864
1037 6 -0.013755
1037 1036 -10.372939
1037 1037 23.519395
1037 1038 -11.582836
1038 2 -8.624252
1038 1036 1.3782
1038 1037 -11.217359
1038 1038 19.463412
1039 2 -4.541766
1039 863 -4.054065
1039 1039 18.62777
1039 1040 -11.205854
1039 1041 2.173916
1040 2 -0.551793
1040 6 -0.013755
1040 1039 -10.285254
1040 1040 23.50366
1040 1041 -11.652858
1041 2 -8.623241
1041 1039 1.336577
1041 1040 -11.211732
1041 1041 19.498396
1042 2 -4.568487
1042 867 -4.054065
1042 1042 18.705163
1042 1043 -11.21702
1042 1044 2.134409
1043 2 -0.549864
1043 6 -0.013755
1043 1042 -10.372939
1043 1043 23.519395
1043 1044 -11.582836
1044 2 -8.624252
1044 1042 1.3782
1044 1043 -11.217359
1044 1044 19.463412
1045 2 -4.541766
1045 863 -4.054065
1045 1045 18.62777
1045 1046 -11.205854
1045 1047 2.173916
1046 2 -0.551793
1046 6 -0.013755
1046 1045 -10.285254
1046 1046 23.50366
1046 1047 -11.652858
1047 2 -8.623241
1047 1045 1.336577
1047 1046 -11.211732
1047 1047 19.498396
1048 2 -4.568487
1048 867 -4.054065
1048 1048 18.705163
1048 1049 -11.21702
1048 1050 2.134409
1049 2 -0.549864
1049 6 -0.013755
1049 1048 -10.372939
1049 1049 23.519395
1049 1050 -11.582836
1050 2 -8.624252
1050 1048 1.3782
1050 1049 -11.217359
1050 1050 19.463412
1051 2 -4.541766
1051 863 -4.054065
1051 1051 18.62777
1051 1052 -11.205854
1051 1053 2.173916
1052 2 -0.551793
1052 6 -0.013755
1052 1051 -10.285254
1052 1052 23.50366
1052 1053 -11.652858
1053 2 -8.623241
1053 1051 1.336577
1053 1052 -11.211732
1053 1053 19.498396
1054 2 -4.568487
1054 867 -4.054065
1054 1054 18.705163
1054 1055 -11.21702
1054 1056 2.134409
1055 2 -0.549864
1055 6 -0.013755
1055 1054 -10.372939
1055 1055 23.519395
1055 1056 -11.582836
1056 2 -8.624252
1056 1054 1.3782
1056 1055 -11.217359
1056 1056 19.463412
1057 2 -4.541766
1057 863 -4.054065
1057 1057 18.62777
1057 1058 -11.205854
1057 1059 2.173916
1058 2 -0.551793
1058 6 -0.013755
1058 1057 -10.285254
1058 1058 23.50366
1058 1059 -11.652858
1059 2 -8.623241
1059 1057 1.336577
1059 1058 -11.211732
1059 1059 19.498396
1060 2 -4.568487
1060 867 -4.054065
1060 1060 18.705163
1060 1061 -11.21702
1060 1062 2.134409
1061 2 -0.549864
1061 6 -0.013755
1061 1060 -10.372939
1061 1061 23.519395
1061 1062 -11.582836
1062 2 -8.624252
1062 1060 1.3782
1062 1061 -11.217359
1062 1062 19.463412
1063 2 -4.541766
1063 863 -4.054065
1063 1063 18.62777
1063 1064 -11.205854
1063 1065 2.173916
1064 2 -0.551793
1064 6 -0.013755
1064 1063 -10.285254
1064 1064 23.50366
1064 1065 -11.652858
1065 2 -8.623241
1065 1063 1.336577
1065 1064 -11.211732
1065 1065 19.498396
1066 2 -4.568487
1066 867 -4.054065
1066 1066 18.705163
1066 1067 -11.21702
1066 1068 2.134409
1067 2 -0.549864
1067 6 -0.013755
1067 1066 -10.372939
1067 1067 23.519395
1067 1068 -11.582836
1068 2 -8.624252
1068 1066 1.3782
1068 1067 -11.217359
1068 1068 19.463412
1069 2 -4.541766
1069 863 -4.054065
1069 1069 18.62777
1069 1070 -11.205854
1069 1071 2.173916
1070 2 -0.551793
1070 6 -0.013755
1070 1069 -10.285254
1070 1070 23.50366
1070 1071 -11.652858
1071 2 -8.623241
1071 1069 1.336577
1071 1070 -11.211732
1071 1071 19.498396
1072 2 -4.568487
1072 867 -4.054065
1072 1072 18.705163
1072 1073 -11.21702
1072 1074 2.134409
1073 2 -0.549864
1073 6 -0.013755
1073 1072 -10.372939
1073 1073 23.519395
1073 1074 -11.582836
1074 2 -8.624252
1074 1072 1.3782
1074 1073 -11.217359
1074 1074 19.463412
1075 2 -4.541766
1075 863 -4.054065
1075 1075 18.62777
1075 1076 -11.205854
1075 1077 2.173916
1076 2 -0.551793
1076 6 -0.013755
1076 1075 -10.285254
1076 1076 23.50366
1076 1077 -11.652858
1077 2 -8.623241
1077 1075 1.336577
1077 1076 -11.211732
1077 1077 19.498396
1078 2 -4.568487
1078 867 -4.054065
1078 1078 18.705163
1078 1079 -11.21702
1078 1080 2.134409
1079 2 -0.549864
1079 6 -0.013755
1079 1078 -10.372939
1079 1079 23.519395
1079 1080 -11.582836
1080 2 -8.624252
1080 1078 1.3782
1080 1079 -11.217359
1080 1080 19.463412
1081 2 -4.541766
1081 863 -4.054065
1081 1081 18.62777
1081 1082 -11.205854
1081 1083 2.173916
1082 2 -0.551793
1082 6 -0.013755
1082 1081 -10.285254
1082 1082 23.50366
1082 1083 -11.652858
1083 2 -8.623241
1083 1081 1.336577
1083 1082 -11.211732
1083 1083 19.498396
1084 2 -4.568487
1084 867 -4.054065
1084 1084 18.705163
1084 1085 -11.21702
1084 1086 2.134409
1085 2 -0.549864
1085 6 -0.013755
1085 1084 -10.372939
1085 1085 23.519395
1085 1086 -11.582836
1086 2 -8.624252
1086 1084 1.3782
1086 1085 -11.217359
1086 1086 19.463412
1087 2 -4.541766
1087 863 -4.054065
1087 1087 18.62777
1087 1088 -11.205854
1087 1089 2.173916
1088 2 -0.551793
1088 6 -0.013755
1088 1087 -10.285254
1088 1088 23.50366
1088 1089 -11.652858
1089 2 -8.623241
1089 1087 1.336577
1089 1088 -11.211732
1089 1089 19.498396
1090 2 -4.568487
1090 867 -4.054065
1090 1090 18.705163
1090 1091 -11.21702
1090 1092 2.134409
1091 2 -0.549864
1091 6 -0.013755
1091 1090 -10.372939
1091 1091 23.519395
1091 1092 -11.582836
1092 2 -8.624252
1092 1090 1.3782
1092 1091 -11.217359
1092 1092 19.463412
1093 2 -4.541766
1093 863 -4.054065
1093 1093 18.62777
1093 1094 -11.205854
1093 1095 2.173916
1094 2 -0.551793
1094 6 -0.013755
1094 1093 -10.285254
1094 1094 23.50366
1094 1095 -11.652858
1095 2 -8.623241
1095 1093 1.336577
1095 1094 -11.211732
1095 1095 19.498396
1096 2 -4.568487
1096 867 -4.054065
1096 1096 18.705163
1096 1097 -11.21702
1096 1098 2.134409
1097 2 -0.549864
1097 6 -0.013755
1097 1096 -10.372939
1097 1097 23.519395
1097 1098 -11.582836
1098 2 -8.624252
1098 1096 1.3782
1098 1097 -11.217359
1098 1098 19.463412
1099 2 -4.541766
1099 863 -4.054065
1099 1099 18.62777
1099 1100 -11.205854
1099 1101 2.173916
1100 2 -0.551793
1100 6 -0.013755
1100 1099 -10.285254
1100 1100 23.50366
1100 1101 -11.652858
1101 2 -8.623241
1101 1099 1.336577
1101 1100 -11.211732
1101 1101 19.498396
1102 2 -4.568487
1102 867 -4.054065
1102 1102 18.705163
1102 1103 -11.21702
1102 1104 2.134409
1103 2 -0.549864
1103 6 -0.013755
1103 1102 -10.372939
1103 1103 23.519395
1103 1104 -11.582836
1104 2 -8.624252
1104 1102 1.3782
1104 1103 -11.217359
1104 1104 19.463412
1105 2 -4.541766
1105 863 -4.054065
1105 1105 18.62777
1105 1106 -11.205854
1105 1107 2.173916
1106 2 -0.551793
1106 6 -0.013755
1106 1105 -10.285254
1106 1106 23.50366
1106 1107 -11.652858
1107 2 -8.623241
1107 1105 1.336577
1107 1106 -11.211732
1107 1107 19.498396
1108 2 -4.568487
1108 867 -4.054065
1108 1108 18.705163
1108 1109 -11.21702
1108 1110 2.134409
1109 2 -0.549864
1109 6 -0.013755
1109 1108 -10.372939
1109 1109 23.519395
1109 1110 -11.582836
1110 2 -8.624252
1110 1108 1.3782
1110 1109 -11.217359
1110 1110 19.463412
1111 2 -4.541766
1111 863 -4.054065
1111 1111 18.62777
1111 1112 -11.205854
1111 1113 2.173916
1112 2 -0.551793
1112 6 -0.013755
1112 1111 -10.285254
1112 1112 23.50366
1112 1113 -11.652858
1113 2 -8.623241
1113 1111 1.336577
1113 1112 -11.211732
1113 1113 19.498396
1114 2 -4.568487
1114 867 -4.054065
1114 1114 18.705163
1114 1115 -11.21702
1114 1116 2.134409
1115 2 -0.549864
1115 6 -0.013755
1115 1114 -10.372939
1115 1115 23.519395
1115 1116 -11.582836
1116 2 -8.624252
1116 1114 1.3782
1116 1115 -11.217359
1116 1116 19.463412
1117 2 -4.541766
1117 863 -4.054065
1117 1117 18.62777
1117 1118 -11.205854
1117 1119 2.173916
1118 2 -0.551793
1118 6 -0.013755
1118 1117 -10.285254
1118 1118 23.50366
1118 1119 -11.652858
1119 2 -8.623241
1119 1117 1.336577
1119 1118 -11.211732
1119 1119 19.498396
1120 2 -4.568487
1120 867 -4.054065
1120 1120 18.705163
1120 1121 -11.21702
1120 1122 2.134409
1121 2 -0.549864
1121 6 -0.013755
1121 1120 -10.372939
1121 1121 23.519395
1121 1122 -11.582836
1122 2 -8.624252
1122 1120 1.3782
1122 1121 -11.217359
1122 1122 19.463412
1123 2 -4.541766
1123 863 -4.054065
1123 1123 18.62777
1123 1124 -11.205854
1123 1125 2.173916
1124 2 -0.551793
1124 6 -0.013755
1124 1123 -10.285254
1124 1124 23.50366
1124 1125 -11.652858
1125 2 -8.623241
1125 1123 1.336577
1125 1124 -11.211732
1125 1125 19.498396
1126 2 -4.568487
1126 867 -4.054065
1126 1126 18.705163
1126 1127 -11.21702
1126 1128 2.134409
1127 2 -0.549864
1127 6 -0.013755
1127 1126 -10.372939
1127 1127 23.519395
1127 1128 -11.582836
1128 2 -8.624252
1128 1126 1.3782
1128 1127 -11.217359
1128 1128 19.463412
1129 2 -6.922685
1129 863 -2.674898
1129 1129 19.629539
1129 1130 -11.205858
1129 1131 2.173903
1130 2 -0.551792
1130 6 -0.013755
1130 1129 -10.285283
1130 1130 23.503666
1130 1131 -11.652835
1131 2 -8.623241
1131 1129 1.336591
1131 1130 -11.211734
1131 1131 19.498385
1132 2 -6.963761
1132 867 -2.674898
1132 1132 19.721272
1132 1133 -11.21702
1132 1134 2.134408
1133 2 -0.549864
1133 6 -0.013755
1133 1132 -10.372942
1133 1133 23.519395
1133 1134 -11.582834
1134 2 -8.624252
1134 1132 1.378201
1134 1133 -11.217359
1134 1134 19.46341
1135 2 -1.285218
1135 676 -1.216214
1135 1135 5.964403
1135 1136 -3.246017
1135 1137 0.783045
1136 2 -0.172285
1136 675 -0.045872
1136 1135 -2.687201
1136 1136 7.611896
1136 1137 -3.706538
1137 2 -2.069911
1137 863 -0.802472
1137 1135 0.218932
1137 1136 -3.295356
1137 1137 6.948807
1138 2 -1.024883
1138 675 -1.216214
1138 1138 4.91069
1138 1139 -2.10276
1138 1140 0.433166
1139 2 -0.274195
1139 676 -0.045872
1139 1138 -1.6473
1139 1139 5.819421
1139 1140 -2.852053
1140 2 -2.043799
1140 867 -0.802472
1140 1138 -0.029297
1140 1139 -2.483137
1140 1140 6.358705
1141 2 -1.285219
1141 676 -1.216214
1141 1141 5.964351
1141 1142 -3.245983
1141 1143 0.783064
1142 2 -0.172296
1142 675 -0.045872
1142 1141 -2.687123
1142 1142 7.611846
1142 1143 -3.706556
1143 2 -1.466551
1143 863 -1.216214
1143 1141 0.218901
1143 1142 -3.295337
1143 1143 6.759201
1144 2 -1.024885
1144 675 -1.216214
1144 1144 4.910688
1144 1145 -2.102812
1144 1146 0.433223
1145 2 -0.274192
1145 676 -0.045872
1145 1144 -1.647294
1145 1145 5.819539
1145 1146 -2.852181
1146 2 -1.436933
1146 867 -1.216214
1146 1144 -0.029301
1146 1145 -2.483216
1146 1146 6.165663
1147 2 -1.285219
1147 676 -1.216214
1147 1147 5.964351
1147 1148 -3.245983
1147 1149 0.783064
1148 2 -0.172296
1148 675 -0.045872
1148 1147 -2.687123
1148 1148 7.611846
1148 1149 -3.706556
1149 2 -1.466551
1149 863 -1.216214
1149 1147 0.218901
1149 1148 -3.295337
1149 1149 6.759201
1150 2 -1.024885
1150 675 -1.216214
1150 1150 4.910688
1150 1151 -2.102812
1150 1152 0.433223
1151 2 -0.274192
1151 676 -0.045872
1151 1150 -1.647294
1151 1151 5.819539
1151 1152 -2.852181
1152 2 -1.436933
1152 867 -1.216214
1152 1150 -0.029301
1152 1151 -2.483216
1152 1152 6.165663
1153 2 -1.285219
1153 676 -1.216214
1153 1153 5.964351
1153 1154 -3.245983
1153 1155 0.783064
1154 2 -0.172296
1154 675 -0.045872
1154 1153 -2.687123
1154 1154 7.611846
1154 1155 -3.706556
1155 2 -1.466551
1155 863 -1.216214
1155 1153 0.218901
1155 1154 -3.295337
1155 1155 6.759201
1156 2 -1.024885
1156 675 -1.216214
1156 1156 4.910688
1156 1157 -2.102812
1156 1158 0.433223
1157 2 -0.274192
1157 676 -0.045872
1157 1156 -1.647294
1157 1157 5.819539
1157 1158 -2.852181
1158 2 -1.436933
1158 867 -1.216214
1158 1156 -0.029301
1158 1157 -2.483216
1158 1158 6.165663
1159 2 -1.285219
1159 676 -1.216214
1159 1159 5.964351
1159 1160 -3.245983
1159 1161 0.783064
1160 2 -0.172296
1160 675 -0.045872
1160 1159 -2.687123
1160 1160 7.611846
1160 1161 -3.706556
1161 2 -1.466551
1161 863 -1.216214
1161 1159 0.218901
1161 1160 -3.295337
1161 1161 6.759201
1162 2 -1.024885
1162 675 -1.216214
1162 1162 4.910688
1162 1163 -2.102812
1162 1164 0.433223
1163 2 -0.274192
1163 676 -0.045872
1163 1162 -1.647294
1163 1163 5.819539
1163 1164 -2.852181
1164 2 -1.436933
1164 867 -1.216214
1164 1162 -0.029301
1164 1163 -2.483216
1164 1164 6.165663
1165 2 -1.285218
1165 676 -1.216214
1165 1165 5.964406
1165 1166 -3.246018
1165 1167 0.783044
1166 2 -0.172284
1166 675 -0.045872
1166 1165 -2.687205
1166 1166 7.611898
1166 1167 -3.706537
1167 2 -2.404251
1167 863 -0.789478
1167 1165 0.218934
1167 1166 -3.295357
1167 1167 7.270152
1168 2 -1.024883
1168 675 -1.216214
1168 1168 4.91069
1168 1169 -2.102757
1168 1170 0.433163
1169 2 -0.274196
1169 676 -0.045872
1169 1168 -1.6473
1169 1169 5.819415
1169 1170 -2.852048
1170 2 -2.380953
1170 867 -0.789478
1170 1168 -0.029297
1170 1169 -2.483133
1170 1170 6.682861
1171 2 -0.696324
1171 676 -0.608106
1171 1171 3.207866
1171 1172 -1.313051
1171 1173 0.409615
1172 2 -0.110212
1172 672 -0.091743
1172 1171 -0.893315
1172 1172 3.943548
1172 1173 -1.848278
1173 2 -1.723169
1173 1171 -0.026057
1173 1172 -1.500948
1173 1173 4.250174
1174 2 -0.696324
1174 676 -0.608106
1174 1174 3.207866
1174 1175 -1.313051
1174 1176 0.409615
1175 2 -0.110212
1175 672 -0.091743
1175 1174 -0.893315
1175 1175 3.943548
1175 1176 -1.848278
1176 2 -1.723169
1176 1174 -0.026057
1176 1175 -1.500948
1176 1176 4.250174
1177 2 -0.569714
1177 675 -0.608106
1177 1177 3.049308
1177 1178 -1.300192
1177 1179 0.428704
1178 2 -0.111896
1178 674 -0.091743
1178 1177 -0.857294
1178 1178 3.954233
1178 1179 -1.8933
1179 2 -1.719967
1179 1177 -0.028275
1179 1178 -1.536796
1179 1179 4.285037
1180 2 -0.569714
1180 675 -0.608106
1180 1180 3.049308
1180 1181 -1.300192
1180 1182 0.428704
1181 2 -0.111896
1181 674 -0.091743
1181 1180 -0.857294
1181 1181 3.954233
1181 1182 -1.8933
1182 2 -1.719967
1182 1180 -0.028275
1182 1181 -1.536796
1182 1182 4.285037
1183 2 -2.22032
1183 769 -2.837837
1183 1183 9.909205
1183 1184 -5.207976
1183 1185 1.356928
1184 2 -0.749549
1184 676 -0.021413
1184 1183 -3.791193
1184 1184 13.00317
1184 1185 -7.441015
1185 2 -7.086044
1185 1183 -0.085283
1185 1184 -6.282133
1185 1185 14.45346
1186 2 -2.962604
1186 773 -2.837837
1186 1186 13.153832
1186 1187 -8.34871
1186 1188 1.99532
1187 2 -0.454974
1187 675 -0.021413
1187 1186 -7.159905
1187 1187 17.83205
1187 1188 -9.195758
1188 2 -7.197389
1188 1186 0.832452
1188 1187 -8.406674
1188 1188 15.77161
1189 2 -2.220327
1189 769 -2.837837
1189 1189 9.909198
1189 1190 -5.208144
1189 1191 1.35711
1190 2 -0.749537
1190 676 -0.021413
1190 1189 -3.791176
1190 1190 13.003552
1190 1191 -7.441425
1191 2 -5.993187
1191 1189 -0.085294
1191 1190 -6.282387
1191 1191 13.360868
1192 2 -2.962609
1192 773 -2.837837
1192 1192 13.153703
1192 1193 -8.348646
1192 1194 1.99539
1193 2 -0.454994
1193 675 -0.021413
1193 1192 -7.159696
1193 1193 17.831951
1193 1194 -9.195847
1194 2 -6.104886
1194 1192 0.832362
1194 1193 -8.406633
1194 1194 14.679157
1195 2 -2.220327
1195 769 -2.837837
1195 1195 9.909198
1195 1196 -5.208144
1195 1197 1.35711
1196 2 -0.749537
1196 676 -0.021413
1196 1195 -3.791176
1196 1196 13.003552
1196 1197 -7.441425
1197 2 -5.993187
1197 1195 -0.085294
1197 1196 -6.282387
1197 1197 13.360868
1198 2 -2.962609
1198 773 -2.837837
1198 1198 13.153703
1198 1199 -8.348646
1198 1200 1.99539
1199 2 -0.454994
1199 675 -0.021413
1199 1198 -7.159696
1199 1199 17.831951
1199 1200 -9.195847
1200 2 -6.104886
1200 1198 0.832362
1200 1199 -8.406633
1200 1200 14.679157
1201 2 -2.22032
1201 769 -2.837837
1201 1201 9.909205
1201 1202 -5.207976
1201 1203 1.356928
1202 2 -0.749549
1202 676 -0.021413
1202 1201 -3.791193
1202 1202 13.00317
1202 1203 -7.441015
1203 2 -7.086044
1203 1201 -0.085283
1203 1202 -6.282133
1203 1203 14.45346
1204 2 -2.962604
1204 773 -2.837837
1204 1204 13.153832
1204 1205 -8.34871
1204 1206 1.99532
1205 2 -0.454974
1205 675 -0.021413
1205 1204 -7.159905
1205 1205 17.83205
1205 1206 -9.195758
1206 2 -7.197389
1206 1204 0.832452
1206 1205 -8.406674
1206 1206 15.77161
1207 2 -3.239606
1207 795 -3.162165
1207 1207 14.497263
1207 1208 -9.305646
1207 1209 2.210155
1208 2 -0.505881
1208 769 -0.019231
1208 1207 -7.990604
1208 1208 19.749911
1208 1209 -10.234195
1209 2 -7.989607
1209 1207 0.929735
1209 1208 -9.36756
1209 1209 17.427431
1210 2 -2.354177
1210 799 -3.162165
1210 1210 10.848394
1210 1211 -4.627415
1210 1212 0.295363
1211 2 -0.965676
1211 773 -0.019231
1211 1210 -4.289446
1211 1211 11.810271
1211 1212 -5.535918
1212 2 -7.810211
1212 1210 -0.018679
1212 1211 -5.297613
1212 1212 14.126503
1213 2 -3.239615
1213 795 -3.162165
1213 1213 14.497084
1213 1214 -9.305558
1213 1215 2.210255
1214 2 -0.50591
1214 769 -0.019231
1214 1213 -7.990316
1214 1214 19.749775
1214 1215 -10.234318
1215 2 -6.782296
1215 1213 0.92961
1215 1214 -9.367503
1215 1215 16.220189
1216 2 -2.354177
1216 799 -3.162165
1216 1216 10.848394
1216 1217 -4.627417
1216 1218 0.295364
1217 2 -0.965676
1217 773 -0.019231
1217 1216 -4.289446
1217 1217 11.810273
1217 1218 -5.535921
1218 2 -6.602254
1218 1216 -0.018679
1218 1217 -5.297615
1218 1218 12.918548
1219 2 -3.239615
1219 795 -3.162165
1219 1219 14.497084
1219 1220 -9.305558
1219 1221 2.210255
1220 2 -0.50591
1220 769 -0.019231
1220 1219 -7.990316
1220 1220 19.749775
1220 1221 -10.234318
1221 2 -6.782296
1221 1219 0.92961
1221 1220 -9.367503
1221 1221 16.220189
1222 2 -2.354177
1222 799 -3.162165
1222 1222 10.848394
1222 1223 -4.627417
1222 1224 0.295364
1223 2 -0.965676
1223 773 -0.019231
1223 1222 -4.289446
1223 1223 11.810273
1223 1224 -5.535921
1224 2 -6.602254
1224 1222 -0.018679
1224 1223 -5.297615
1224 1224 12.918548
1225 2 -3.239615
1225 795 -3.162165
1225 1225 14.497084
1225 1226 -9.305558
1225 1227 2.210255
1226 2 -0.50591
1226 769 -0.019231
1226 1225 -7.990316
1226 1226 19.749775
1226 1227 -10.234318
1227 2 -6.782296
1227 1225 0.92961
1227 1226 -9.367503
1227 1227 16.220189
1228 2 -2.354177
1228 799 -3.162165
1228 1228 10.848394
1228 1229 -4.627417
1228 1230 0.295364
1229 2 -0.965676
1229 773 -0.019231
1229 1228 -4.289446
1229 1229 11.810273
1229 1230 -5.535921
1230 2 -6.602254
1230 1228 -0.018679
1230 1229 -5.297615
1230 1230 12.918548
1231 2 -3.239615
1231 795 -3.162165
1231 1231 14.497084
1231 1232 -9.305558
1231 1233 2.210255
1232 2 -0.50591
1232 769 -0.019231
1232 1231 -7.990316
1232 1232 19.749775
1232 1233 -10.234318
1233 2 -6.782296
1233 1231 0.92961
1233 1232 -9.367503
1233 1233 16.220189
1234 2 -2.354177
1234 799 -3.162165
1234 1234 10.848394
1234 1235 -4.627417
1234 1236 0.295364
1235 2 -0.965676
1235 773 -0.019231
1235 1234 -4.289446
1235 1235 11.810273
1235 1236 -5.535921
1236 2 -6.602254
1236 1234 -0.018679
1236 1235 -5.297615
1236 1236 12.918548
1237 2 -3.239615
1237 795 -3.162165
1237 1237 14.497084
1237 1238 -9.305558
1237 1239 2.210255
1238 2 -0.50591
1238 769 -0.019231
1238 1237 -7.990316
1238 1238 19.749775
1238 1239 -10.234318
1239 2 -6.782296
1239 1237 0.92961
1239 1238 -9.367503
1239 1239 16.220189
1240 2 -2.354177
1240 799 -3.162165
1240 1240 10.848394
1240 1241 -4.627417
1240 1242 0.295364
1241 2 -0.965676
1241 773 -0.019231
1241 1240 -4.289446
1241 1241 11.810273
1241 1242 -5.535921
1242 2 -6.602254
1242 1240 -0.018679
1242 1241 -5.297615
1242 1242 12.918548
1243 2 -3.239615
1243 795 -3.162165
1243 1243 14.497084
1243 1244 -9.305558
1243 1245 2.210255
1244 2 -0.50591
1244 769 -0.019231
1244 1243 -7.990316
1244 1244 19.749775
1244 1245 -10.234318
1245 2 -6.782296
1245 1243 0.92961
1245 1244 -9.367503
1245 1245 16.220189
1246 2 -2.354177
1246 799 -3.162165
1246 1246 10.848394
1246 1247 -4.627417
1246 1248 0.295364
1247 2 -0.965676
1247 773 -0.019231
1247 1246 -4.289446
1247 1247 11.810273
1247 1248 -5.535921
1248 2 -6.602254
1248 1246 -0.018679
1248 1247 -5.297615
1248 1248 12.918548
1249 2 -3.239615
1249 795 -3.162165
1249 1249 14.497084
1249 1250 -9.305558
1249 1251 2.210255
1250 2 -0.50591
1250 769 -0.019231
1250 1249 -7.990316
1250 1250 19.749775
1250 1251 -10.234318
1251 2 -6.782296
1251 1249 0.92961
1251 1250 -9.367503
1251 1251 16.220189
1252 2 -2.354177
1252 799 -3.162165
1252 1252 10.848394
1252 1253 -4.627417
1252 1254 0.295364
1253 2 -0.965676
1253 773 -0.019231
1253 1252 -4.289446
1253 1253 11.810273
1253 1254 -5.535921
1254 2 -6.602254
1254 1252 -0.018679
1254 1253 -5.297615
1254 1254 12.918548
1255 2 -3.239615
1255 795 -3.162165
1255 1255 14.497084
1255 1256 -9.305558
1255 1257 2.210255
1256 2 -0.50591
1256 769 -0.019231
1256 1255 -7.990316
1256 1256 19.749775
1256 1257 -10.234318
1257 2 -6.782296
1257 1255 0.92961
1257 1256 -9.367503
1257 1257 16.220189
1258 2 -2.354177
1258 799 -3.162165
1258 1258 10.848394
1258 1259 -4.627417
1258 1260 0.295364
1259 2 -0.965676
1259 773 -0.019231
1259 1258 -4.289446
1259 1259 11.810273
1259 1260 -5.535921
1260 2 -6.602254
1260 1258 -0.018679
1260 1259 -5.297615
1260 1260 12.918548
1261 2 -3.239615
1261 795 -3.162165
1261 1261 14.497084
1261 1262 -9.305558
1261 1263 2.210255
1262 2 -0.50591
1262 769 -0.019231
1262 1261 -7.990316
1262 1262 19.749775
1262 1263 -10.234318
1263 2 -6.782296
1263 1261 0.92961
1263 1262 -9.367503
1263 1263 16.220189
1264 2 -2.354177
1264 799 -3.162165
1264 1264 10.848394
1264 1265 -4.627417
1264 1266 0.295364
1265 2 -0.965676
1265 773 -0.019231
1265 1264 -4.289446
1265 1265 11.810273
1265 1266 -5.535921
1266 2 -6.602254
1266 1264 -0.018679
1266 1265 -5.297615
1266 1266 12.918548
1267 2 -5.28238
1267 795 -2.052634
1267 1267 15.430619
1267 1268 -9.305701
1267 1269 2.210096
1268 2 -0.505892
1268 769 -0.019231
1268 1267 -7.990806
1268 1268 19.749993
1268 1269 -10.234063
1269 2 -6.782305
1269 1267 0.929817
1269 1268 -9.367591
1269 1269 16.220078
1270 2 -3.889218
1270 799 -2.052634
1270 1270 11.273905
1270 1271 -4.627417
1270 1272 0.295363
1271 2 -0.965676
1271 773 -0.019231
1271 1270 -4.289447
1271 1271 11.810272
1271 1272 -5.535918
1272 2 -6.602254
1272 1270 -0.018679
1272 1271 -5.297613
1272 1272 12.918546
1273 1 -1.812406
1273 5 -17.191935
1273 672 -0.11236
1273 1273 20.116701
1274 1 -1.816007
1274 5 -17.415238
1274 674 -0.11236
1274 1274 20.343605
1275 1 -1.812406
1275 5 -17.191935
1275 672 -0.11236
1275 1275 20.116701
1276 1 -1.816007
1276 5 -17.415238
1276 674 -0.11236
1276 1276 20.343605
1277 1 -1.812406
1277 5 -17.191935
1277 672 -0.11236
1277 1277 20.116701
1278 1 -1.816007
1278 5 -17.415238
1278 674 -0.11236
1278 1278 20.343605
1279 1 -1.780796
1279 5 -16.681474
1279 676 -0.11236
1279 1279 19.574629
1280 1 -1.808781
1280 5 -17.419981
1280 675 -0.11236
1280 1280 20.341121
1281 1 -1.780796
1281 5 -16.681474
1281 676 -0.11236
1281 1281 19.574629
1282 1 -1.808781
1282 5 -17.419981
1282 675 -0.11236
1282 1282 20.341121
1283 1 -1.780796
1283 5 -16.681474
1283 676 -0.11236
1283 1283 19.574629
1284 1 -1.808781
1284 5 -17.419981
1284 675 -0.11236
1284 1284 20.341121
1285 672 -1.020408
1285 1285 2.020408
1285 7574 -1.0
1286 1 -19.606396
1286 676 -27.7502
1286 1286 48.356596
1287 1 -19.606396
1287 672 -27.7502
1287 1287 48.356596
1288 674 -1.020408
1288 1288 2.020408
1288 7573 -1.0
1289 1 -19.606396
1289 675 -27.7502
1289 1289 48.356596
1290 1 -19.606396
1290 674 -27.7502
1290 1290 48.356596
1291 1291 5.385965
1291 1292 -4.385965
1291 7571 -1.0
1292 1291 -4.385965
1292 1292 5.385965
1292 7566 1.0
1293 1293 5.385965
1293 1294 -4.385965
1293 7570 -1.0
1294 1293 -4.385965
1294 1294 5.385965
1294 7563 1.0
1295 1295 5.385965
1295 1296 -4.385965
1295 7569 -1.0
1296 1 -16.8765
1296 2 -9.244
1296 4 -1.0705
1296 5 -2.0275
1296 1295 -4.385965
1296 1296 155.606038
1296 1300 -34.3644
1296 1301 -57.346
1296 1796 -0.091743
1296 1799 -0.091743
1296 1897 -0.11236
1296 1899 -0.11236
1296 1901 -0.11236
1296 1909 -1.020408
1296 1911 -27.7502
1297 1297 5.385965
1297 1298 -4.385965
1297 7572 -1.0
1298 1 -16.882
1298 2 -9.139
1298 4 -1.0705
1298 5 -2.094
1298 1297 -4.385965
1298 1298 155.555538
1298 1299 -34.3639
1298 1302 -57.329
1298 1802 -0.091743
1298 1805 -0.091743
1298 1898 -0.11236
1298 1900 -0.11236
1298 1902 -0.11236
1298 1912 -1.020408
1298 1914 -27.7502
1299 1 -41.117
1299 2 -16.5255
1299 4 -25.0715
1299 5 -2.03
1299 6 -0.315
1299 1298 -34.3639
1299 1299 256.827596
1299 1300 -12.9405
1299 1302 -63.223
1299 1304 -0.045872
1299 1306 -0.789478
1299 1310 -0.045872
1299 1312 -1.216214
1299 1316 -0.045872
1299 1318 -1.216214
1299 1322 -0.045872
1299 1324 -1.216214
1299 1328 -0.045872
1299 1330 -1.216214
1299 1334 -0.045872
1299 1336 -1.216214
1299 1340 -0.045872
1299 1342 -1.216214
1299 1346 -0.045872
1299 1348 -1.216214
1299 1352 -0.045872
1299 1354 -1.216214
1299 1358 -0.045872
1299 1360 -1.216214
1299 1364 -0.045872
1299 1366 -1.216214
1299 1370 -0.045872
1299 1372 -1.216214
1299 1376 -0.045872
1299 1378 -1.216214
1299 1382 -0.045872
1299 1384 -1.216214
1299 1388 -0.045872
1299 1390 -1.216214
1299 1397 -1.522
1299 1487 -0.4245
1299 1491 -2.8285
1299 1760 -0.045872
1299 1762 -1.216214
1299 1766 -0.045872
1299 1768 -1.216214
1299 1772 -0.045872
1299 1774 -1.216214
1299 1778 -0.045872
1299 1780 -1.216214
1299 1784 -0.045872
1299 1786 -1.216214
1299 1790 -0.045872
1299 1792 -1.216214
1299 1801 -0.608106
1299 1804 -0.608106
1299 1811 -0.021413
1299 1817 -0.021413
1299 1823 -0.021413
1299 1829 -0.021413
1299 1904 -0.11236
1299 1906 -0.11236
1299 1908 -0.11236
1299 1913 -27.7502
1299 7567 1.0
1299 7571 1.0
1300 1 -41.1965
1300 2 -16.6505
1300 4 -25.0385
1300 5 -1.968
1300 6 -0.31
1300 1296 -34.3644
1300 1299 -12.9405
1300 1300 256.913596
1300 1301 -63.2005
1300 1303 -0.789478
1300 1307 -0.045872
1300 1309 -1.216214
1300 1313 -0.045872
1300 1315 -1.216214
1300 1319 -0.045872
1300 1321 -1.216214
1300 1325 -0.045872
1300 1327 -1.216214
1300 1331 -0.045872
1300 1333 -1.216214
1300 1337 -0.045872
1300 1339 -1.216214
1300 1343 -0.045872
1300 1345 -1.216214
1300 1349 -0.045872
1300 1351 -1.216214
1300 1355 -0.045872
1300 1357 -1.216214
1300 1361 -0.045872
1300 1363 -1.216214
1300 1367 -0.045872
1300 1369 -1.216214
1300 1373 -0.045872
1300 1375 -1.216214
1300 1379 -0.045872
1300 1381 -1.216214
1300 1385 -0.045872
1300 1387 -1.216214
1300 1391 -0.045872
1300 1393 -1.522
1300 1487 -2.832
1300 1491 -0.4245
1300 1759 -1.216214
1300 1763 -0.045872
1300 1765 -1.216214
1300 1769 -0.045872
1300 1771 -1.216214
1300 1775 -0.045872
1300 1777 -1.216214
1300 1781 -0.045872
1300 1783 -1.216214
1300 1787 -0.045872
1300 1789 -1.216214
1300 1793 -0.045872
1300 1795 -0.608106
1300 1798 -0.608106
1300 1808 -0.021413
1300 1814 -0.021413
1300 1820 -0.021413
1300 1826 -0.021413
1300 1903 -0.11236
1300 1905 -0.11236
1300 1907 -0.11236
1300 1910 -27.7502
1300 7568 1.0
1300 7570 1.0
1301 1 -132.8115
1301 2 -194.2496
1301 4 -52.4615
1301 5 -55.2875
1301 1296 -57.346
1301 1300 -63.2005
1301 1301 557.2816
1301 1419 -0.4625
1301 1423 -0.4625
1302 1 -132.228
1302 2 -197.5526
1302 4 -52.4615
1302 5 -55.5525
1302 1298 -57.329
1302 1299 -63.223
1302 1302 560.4086
1302 1419 -0.531
1302 1423 -0.531
1303 4 -1.951307
1303 1300 -0.789478
1303 1303 5.251451
1303 1304 -2.198081
1303 1305 0.687415
1304 4 -0.41242
1304 1299 -0.045872
1304 1303 -1.514165
1304 1304 6.305411
1304 1305 -3.332954
1305 4 -2.894081
1305 1303 -0.060109
1305 1304 -2.771546
1305 1305 6.725736
1306 4 -2.504589
1306 1299 -0.789478
1306 1306 6.768592
1306 1307 -3.216194
1306 1308 0.741669
1307 4 -0.207677
1307 1300 -0.045872
1307 1306 -2.672441
1307 1307 7.554757
1307 1308 -3.628767
1308 4 -2.978882
1308 1306 0.253542
1308 1307 -3.251291
1308 1308 6.976631
1309 4 -1.193267
1309 1300 -1.216214
1309 1309 4.920148
1309 1310 -2.198081
1309 1311 0.687414
1310 4 -0.41242
1310 1299 -0.045872
1310 1309 -1.514166
1310 1310 6.305409
1310 1311 -3.332951
1311 4 -2.894081
1311 1309 -0.060109
1311 1310 -2.771544
1311 1311 6.725733
1312 4 -1.565883
1312 1299 -1.216214
1312 1312 6.256554
1312 1313 -3.216158
1312 1314 0.7417
1313 4 -0.207685
1313 1300 -0.045872
1313 1312 -2.672345
1313 1313 7.554712
1313 1314 -3.62881
1314 4 -2.978877
1314 1312 0.253497
1314 1313 -3.251271
1314 1314 6.976651
1315 4 -1.193267
1315 1300 -1.216214
1315 1315 4.920148
1315 1316 -2.198081
1315 1317 0.687414
1316 4 -0.41242
1316 1299 -0.045872
1316 1315 -1.514166
1316 1316 6.305409
1316 1317 -3.332951
1317 4 -2.894081
1317 1315 -0.060109
1317 1316 -2.771544
1317 1317 6.725733
1318 4 -1.565883
1318 1299 -1.216214
1318 1318 6.256554
1318 1319 -3.216158
1318 1320 0.7417
1319 4 -0.207685
1319 1300 -0.045872
1319 1318 -2.672345
1319 1319 7.554712
1319 1320 -3.62881
1320 4 -2.978877
1320 1318 0.253497
1320 1319 -3.251271
1320 1320 6.976651
1321 4 -1.193267
1321 1300 -1.216214
1321 1321 4.920148
1321 1322 -2.198081
1321 1323 0.687414
1322 4 -0.41242
1322 1299 -0.045872
1322 1321 -1.514166
1322 1322 6.305409
1322 1323 -3.332951
1323 4 -2.894081
1323 1321 -0.060109
1323 1322 -2.771544
1323 1323 6.725733
1324 4 -1.565883
1324 1299 -1.216214
1324 1324 6.256554
1324 1325 -3.216158
1324 1326 0.7417
1325 4 -0.207685
1325 1300 -0.045872
1325 1324 -2.672345
1325 1325 7.554712
1325 1326 -3.62881
1326 4 -2.978877
1326 1324 0.253497
1326 1325 -3.251271
1326 1326 6.976651
1327 4 -1.193267
1327 1300 -1.216214
1327 1327 4.920148
1327 1328 -2.198081
1327 1329 0.687414
1328 4 -0.41242
1328 1299 -0.045872
1328 1327 -1.514166
1328 1328 6.305409
1328 1329 -3.332951
1329 4 -2.894081
1329 1327 -0.060109
1329 1328 -2.771544
1329 1329 6.725733
1330 4 -1.565883
1330 1299 -1.216214
1330 1330 6.256554
1330 1331 -3.216158
1330 1332 0.7417
1331 4 -0.207685
1331 1300 -0.045872
1331 1330 -2.672345
1331 1331 7.554712
1331 1332 -3.62881
1332 4 -2.978877
1332 1330 0.253497
1332 1331 -3.251271
1332 1332 6.976651
1333 4 -1.193267
1333 1300 -1.216214
1333 1333 4.920148
1333 1334 -2.198081
1333 1335 0.687414
1334 4 -0.41242
1334 1299 -0.045872
1334 1333 -1.514166
1334 1334 6.305409
1334 1335 -3.332951
1335 4 -2.894081
1335 1333 -0.060109
1335 1334 -2.771544
1335 1335 6.725733
1336 4 -1.565883
1336 1299 -1.216214
1336 1336 6.256554
1336 1337 -3.216158
1336 1338 0.7417
1337 4 -0.207685
1337 1300 -0.045872
1337 1336 -2.672345
1337 1337 7.554712
1337 1338 -3.62881
1338 4 -2.978877
1338 1336 0.253497
1338 1337 -3.251271
1338 1338 6.976651
1339 4 -1.193267
1339 1300 -1.216214
1339 1339 4.920148
1339 1340 -2.198081
1339 1341 0.687414
1340 4 -0.41242
1340 1299 -0.045872
1340 1339 -1.514166
1340 1340 6.305409
1340 1341 -3.332951
1341 4 -2.894081
1341 1339 -0.060109
1341 1340 -2.771544
1341 1341 6.725733
1342 4 -1.565883
1342 1299 -1.216214
1342 1342 6.256554
1342 1343 -3.216158
1342 1344 0.7417
1343 4 -0.207685
1343 1300 -0.045872
1343 1342 -2.672345
1343 1343 7.554712
1343 1344 -3.62881
1344 4 -2.978877
1344 1342 0.253497
1344 1343 -3.251271
1344 1344 6.976651
1345 4 -1.193267
1345 1300 -1.216214
1345 1345 4.920148
1345 1346 -2.198081
1345 1347 0.687414
1346 4 -0.41242
1346 1299 -0.045872
1346 1345 -1.514166
1346 1346 6.305409
1346 1347 -3.332951
1347 4 -2.894081
1347 1345 -0.060109
1347 1346 -2.771544
1347 1347 6.725733
1348 4 -1.565883
1348 1299 -1.216214
1348 1348 6.256554
1348 1349 -3.216158
1348 1350 0.7417
1349 4 -0.207685
1349 1300 -0.045872
1349 1348 -2.672345
1349 1349 7.554712
1349 1350 -3.62881
1350 4 -2.978877
1350 1348 0.253497
1350 1349 -3.251271
1350 1350 6.976651
1351 4 -1.193267
1351 1300 -1.216214
1351 1351 4.920148
1351 1352 -2.198081
1351 1353 0.687414
1352 4 -0.41242
1352 1299 -0.045872
1352 1351 -1.514166
1352 1352 6.305409
1352 1353 -3.332951
1353 4 -2.894081
1353 1351 -0.060109
1353 1352 -2.771544
1353 1353 6.725733
1354 4 -1.565883
1354 1299 -1.216214
1354 1354 6.256554
1354 1355 -3.216158
1354 1356 0.7417
1355 4 -0.207685
1355 1300 -0.045872
1355 1354 -2.672345
1355 1355 7.554712
1355 1356 -3.62881
1356 4 -2.978877
1356 1354 0.253497
1356 1355 -3.251271
1356 1356 6.976651
1357 4 -1.193267
1357 1300 -1.216214
1357 1357 4.920148
1357 1358 -2.198081
1357 1359 0.687414
1358 4 -0.41242
1358 1299 -0.045872
1358 1357 -1.514166
1358 1358 6.305409
1358 1359 -3.332951
1359 4 -2.894081
1359 1357 -0.060109
1359 1358 -2.771544
1359 1359 6.725733
1360 4 -1.565883
1360 1299 -1.216214
1360 1360 6.256554
1360 1361 -3.216158
1360 1362 0.7417
1361 4 -0.207685
1361 1300 -0.045872
1361 1360 -2.672345
1361 1361 7.554712
1361 1362 -3.62881
1362 4 -2.978877
1362 1360 0.253497
1362 1361 -3.251271
1362 1362 6.976651
1363 4 -1.193267
1363 1300 -1.216214
1363 1363 4.920148
1363 1364 -2.198081
1363 1365 0.687414
1364 4 -0.41242
1364 1299 -0.045872
1364 1363 -1.514166
1364 1364 6.305409
1364 1365 -3.332951
1365 4 -2.894081
1365 1363 -0.060109
1365 1364 -2.771544
1365 1365 6.725733
1366 4 -1.565883
1366 1299 -1.216214
1366 1366 6.256554
1366 1367 -3.216158
1366 1368 0.7417
1367 4 -0.207685
1367 1300 -0.045872
1367 1366 -2.672345
1367 1367 7.554712
1367 1368 -3.62881
1368 4 -2.978877
1368 1366 0.253497
1368 1367 -3.251271
1368 1368 6.976651
1369 4 -1.193267
1369 1300 -1.216214
1369 1369 4.920148
1369 1370 -2.198081
1369 1371 0.687414
1370 4 -0.41242
1370 1299 -0.045872
1370 1369 -1.514166
1370 1370 6.305409
1370 1371 -3.332951
1371 4 -2.894081
1371 1369 -0.060109
1371 1370 -2.771544
1371 1371 6.725733
1372 4 -1.565883
1372 1299 -1.216214
1372 1372 6.256554
1372 1373 -3.216158
1372 1374 0.7417
1373 4 -0.207685
1373 1300 -0.045872
1373 1372 -2.672345
1373 1373 7.554712
1373 1374 -3.62881
1374 4 -2.978877
1374 1372 0.253497
1374 1373 -3.251271
1374 1374 6.976651
1375 4 -1.193267
1375 1300 -1.216214
1375 1375 4.920148
1375 1376 -2.198081
1375 1377 0.687414
1376 4 -0.41242
1376 1299 -0.045872
1376 1375 -1.514166
1376 1376 6.305409
1376 1377 -3.332951
1377 4 -2.894081
1377 1375 -0.060109
1377 1376 -2.771544
1377 1377 6.725733
1378 4 -1.565883
1378 1299 -1.216214
1378 1378 6.256554
1378 1379 -3.216158
1378 1380 0.7417
1379 4 -0.207685
1379 1300 -0.045872
1379 1378 -2.672345
1379 1379 7.554712
1379 1380 -3.62881
1380 4 -2.978877
1380 1378 0.253497
1380 1379 -3.251271
1380 1380 6.976651
1381 4 -1.193267
1381 1300 -1.216214
1381 1381 4.920148
1381 1382 -2.198081
1381 1383 0.687414
1382 4 -0.41242
1382 1299 -0.045872
1382 1381 -1.514166
1382 1382 6.305409
1382 1383 -3.332951
1383 4 -2.894081
1383 1381 -0.060109
1383 1382 -2.771544
1383 1383 6.725733
1384 4 -1.565883
1384 1299 -1.216214
1384 1384 6.256554
1384 1385 -3.216158
1384 1386 0.7417
1385 4 -0.207685
1385 1300 -0.045872
1385 1384 -2.672345
1385 1385 7.554712
1385 1386 -3.62881
1386 4 -2.978877
1386 1384 0.253497
1386 1385 -3.251271
1386 1386 6.976651
1387 4 -1.193266
1387 1300 -1.216214
1387 1387 4.920149
1387 1388 -2.198068
1387 1389 0.687399
1388 4 -0.412424
1388 1299 -0.045872
1388 1387 -1.514168
1388 1388 6.305383
1388 1389 -3.332919
1389 4 -3.531135
1389 1387 -0.060107
1389 1388 -2.771525
1389 1389 7.362767
1390 4 -1.565885
1390 1299 -1.216214
1390 1390 6.256577
1390 1391 -3.216171
1390 1392 0.741692
1391 4 -0.207679
1391 1300 -0.045872
1391 1390 -2.672376
1391 1391 7.554728
1391 1392 -3.628801
1392 4 -3.615857
1392 1390 0.253511
1392 1391 -3.251279
1392 1392 7.613624
1393 1 -17.2055
1393 2 -19.5265
1393 4 -5.6965
1393 6 -0.0405
1393 1300 -1.522
1393 1393 68.59008
1393 1394 -2.297298
1393 1401 -2.297298
1393 1407 -2.297298
1393 1413 -2.297298
1393 1419 -2.847
1393 1807 -2.837837
1393 1813 -2.837837
1393 1819 -2.837837
1393 1825 -2.837837
1393 1832 -0.019231
1393 1838 -0.019231
1393 1844 -0.019231
1393 1850 -0.019231
1393 1856 -0.019231
1393 1862 -0.019231
1393 1868 -0.019231
1393 1874 -0.019231
1393 1880 -0.019231
1393 1886 -0.019231
1393 1892 -0.019231
1394 4 -2.884872
1394 1393 -2.297298
1394 1394 11.388009
1394 1395 -6.655471
1394 1396 1.449633
1395 2 -0.026455
1395 4 -0.444096
1395 1394 -5.799793
1395 1395 14.42434
1395 1396 -7.153996
1396 4 -6.641234
1396 1394 0.806803
1396 1395 -6.688021
1396 1396 13.522452
1397 1 -17.185
1397 2 -19.5575
1397 4 -5.6545
1397 6 -0.0345
1397 1299 -1.522
1397 1397 68.55008
1397 1398 -2.297298
1397 1404 -2.297298
1397 1410 -2.297298
1397 1416 -2.297298
1397 1423 -2.8445
1397 1810 -2.837837
1397 1816 -2.837837
1397 1822 -2.837837
1397 1828 -2.837837
1397 1835 -0.019231
1397 1841 -0.019231
1397 1847 -0.019231
1397 1853 -0.019231
1397 1859 -0.019231
1397 1865 -0.019231
1397 1871 -0.019231
1397 1877 -0.019231
1397 1883 -0.019231
1397 1889 -0.019231
1397 1895 -0.019231
1398 4 -2.228691
1398 1397 -2.297298
1398 1398 8.897857
1398 1399 -5.350595
1398 1400 1.978727
1399 2 -0.026455
1399 4 -0.630986
1399 1398 -3.49085
1399 1399 12.971308
1399 1400 -7.823016
1400 4 -6.536381
1400 1398 -0.094231
1400 1399 -6.153355
1400 1400 13.783967
1401 4 -2.884868
1401 1393 -2.297298
1401 1401 11.387961
1401 1402 -6.65545
1401 1403 1.449655
1402 2 -0.026455
1402 4 -0.44411
1402 1401 -5.799719
1402 1402 14.424312
1402 1403 -7.154028
1403 4 -5.534103
1403 1401 0.806767
1403 1402 -6.688007
1403 1403 12.415342
1404 4 -2.228702
1404 1397 -2.297298
1404 1404 8.897859
1404 1405 -5.350592
1404 1406 1.978734
1405 2 -0.026455
1405 4 -0.630984
1405 1404 -3.490856
1405 1405 12.971316
1405 1406 -7.823021
1406 4 -5.429477
1406 1404 -0.094226
1406 1405 -6.153354
1406 1406 12.677057
1407 4 -2.884868
1407 1393 -2.297298
1407 1407 11.387961
1407 1408 -6.65545
1407 1409 1.449655
1408 2 -0.026455
1408 4 -0.44411
1408 1407 -5.799719
1408 1408 14.424312
1408 1409 -7.154028
1409 4 -5.534103
1409 1407 0.806767
1409 1408 -6.688007
1409 1409 12.415342
1410 4 -2.228702
1410 1397 -2.297298
1410 1410 8.897859
1410 1411 -5.350592
1410 1412 1.978734
1411 2 -0.026455
1411 4 -0.630984
1411 1410 -3.490856
1411 1411 12.971316
1411 1412 -7.823021
1412 4 -5.429477
1412 1410 -0.094226
1412 1411 -6.153354
1412 1412 12.677057
1413 4 -2.884872
1413 1393 -2.297298
1413 1413 11.388009
1413 1414 -6.655471
1413 1415 1.449633
1414 2 -0.026455
1414 4 -0.444096
1414 1413 -5.799793
1414 1414 14.42434
1414 1415 -7.153996
1415 4 -6.641234
1415 1413 0.806803
1415 1414 -6.688021
1415 1415 13.522452
1416 4 -2.228691
1416 1397 -2.297298
1416 1416 8.897857
1416 1417 -5.350595
1416 1418 1.978727
1417 2 -0.026455
1417 4 -0.630986
1417 1416 -3.49085
1417 1417 12.971308
1417 1418 -7.823016
1418 4 -6.536381
1418 1416 -0.094231
1418 1417 -6.153355
1418 1418 13.783967
1419 1 -20.1005
1419 2 -250.3055
1419 4 -27.4455
1419 5 -0.347
1419 6 -0.454
1419 1301 -0.4625
1419 1302 -0.531
1419 1393 -2.847
1419 1419 368.2527
1419 1420 -1.754386
1419 1423 -2.304
1419 1427 -2.702703
1419 1433 -2.702703
1419 1439 -2.702703
1419 1445 -2.702703
1419 1451 -2.702703
1419 1457 -2.702703
1419 1463 -2.702703
1419 1469 -2.702703
1419 1475 -2.702703
1419 1481 -2.702703
1419 1831 -3.162165
1419 1837 -3.162165
1419 1843 -3.162165
1419 1849 -3.162165
1419 1855 -3.162165
1419 1861 -3.162165
1419 1867 -3.162165
1419 1873 -3.162165
1419 1879 -3.162165
1419 1885 -3.162165
1419 1891 -2.052634
1420 4 -4.277856
1420 1419 -1.754386
1420 1420 11.080487
1420 1421 -6.375315
1420 1422 2.32707
1421 2 -0.022523
1421 4 -0.728084
1421 1420 -4.198644
1421 1421 15.157111
1421 1422 -9.207861
1422 4 -6.35937
1422 1420 -0.088271
1422 1421 -7.259069
1422 1422 14.70671
1423 1 -17.0165
1423 2 -252.185
1423 4 -27.7895
1423 5 -0.347
1423 6 -0.4565
1423 1301 -0.4625
1423 1302 -0.531
1423 1397 -2.8445
1423 1419 -2.304
1423 1423 367.3922
1423 1424 -1.754386
1423 1430 -2.702703
1423 1436 -2.702703
1423 1442 -2.702703
1423 1448 -2.702703
1423 1454 -2.702703
1423 1460 -2.702703
1423 1466 -2.702703
1423 1472 -2.702703
1423 1478 -2.702703
1423 1484 -2.702703
1423 1834 -3.162165
1423 1840 -3.162165
1423 1846 -3.162165
1423 1852 -3.162165
1423 1858 -3.162165
1423 1864 -3.162165
1423 1870 -3.162165
1423 1876 -3.162165
1423 1882 -3.162165
1423 1888 -3.162165
1423 1894 -2.052634
1424 4 -5.557713
1424 1423 -1.754386
1424 1424 14.608182
1424 1425 -7.894508
1424 1426 1.598425
1425 2 -0.022523
1425 4 -0.499362
1425 1424 -7.101969
1425 1425 16.869009
1425 1426 -8.245156
1426 4 -6.496557
1426 1424 1.097917
1426 1425 -7.910726
1426 1426 14.309365
1427 4 -2.652793
1427 1419 -2.702703
1427 1427 10.403607
1427 1428 -6.375188
1427 1429 2.327077
1428 2 -0.022523
1428 4 -0.728103
1428 1427 -4.198492
1428 1428 15.156981
1428 1429 -9.207863
1429 4 -6.359361
1429 1427 -0.088312
1429 1428 -7.259034
1429 1429 14.706707
1430 4 -3.508942
1430 1423 -2.702703
1430 1430 13.507695
1430 1431 -7.894498
1430 1432 1.598447
1431 2 -0.022523
1431 4 -0.499366
1431 1430 -7.101913
1431 1431 16.868995
1431 1432 -8.245193
1432 4 -6.496552
1432 1430 1.097887
1432 1431 -7.910719
1432 1432 14.309385
1433 4 -2.652793
1433 1419 -2.702703
1433 1433 10.403607
1433 1434 -6.375188
1433 1435 2.327077
1434 2 -0.022523
1434 4 -0.728103
1434 1433 -4.198492
1434 1434 15.156981
1434 1435 -9.207863
1435 4 -6.359361
1435 1433 -0.088312
1435 1434 -7.259034
1435 1435 14.706707
1436 4 -3.508942
1436 1423 -2.702703
1436 1436 13.507695
1436 1437 -7.894498
1436 1438 1.598447
1437 2 -0.022523
1437 4 -0.499366
1437 1436 -7.101913
1437 1437 16.868995
1437 1438 -8.245193
1438 4 -6.496552
1438 1436 1.097887
1438 1437 -7.910719
1438 1438 14.309385
1439 4 -2.652793
1439 1419 -2.702703
1439 1439 10.403607
1439 1440 -6.375188
1439 1441 2.327077
1440 2 -0.022523
1440 4 -0.728103
1440 1439 -4.198492
1440 1440 15.156981
1440 1441 -9.207863
1441 4 -6.359361
1441 1439 -0.088312
1441 1440 -7.259034
1441 1441 14.706707
1442 4 -3.508942
1442 1423 -2.702703
1442 1442 13.507695
1442 1443 -7.894498
1442 1444 1.598447
1443 2 -0.022523
1443 4 -0.499366
1443 1442 -7.101913
1443 1443 16.868995
1443 1444 -8.245193
1444 4 -6.496552
1444 1442 1.097887
1444 1443 -7.910719
1444 1444 14.309385
1445 4 -2.652793
1445 1419 -2.702703
1445 1445 10.403607
1445 1446 -6.375188
1445 1447 2.327077
1446 2 -0.022523
1446 4 -0.728103
1446 1445 -4.198492
1446 1446 15.156981
1446 1447 -9.207863
1447 4 -6.359361
1447 1445 -0.088312
1447 1446 -7.259034
1447 1447 14.706707
1448 4 -3.508942
1448 1423 -2.702703
1448 1448 13.507695
1448 1449 -7.894498
1448 1450 1.598447
1449 2 -0.022523
1449 4 -0.499366
1449 1448 -7.101913
1449 1449 16.868995
1449 1450 -8.245193
1450 4 -6.496552
1450 1448 1.097887
1450 1449 -7.910719
1450 1450 14.309385
1451 4 -2.652793
1451 1419 -2.702703
1451 1451 10.403607
1451 1452 -6.375188
1451 1453 2.327077
1452 2 -0.022523
1452 4 -0.728103
1452 1451 -4.198492
1452 1452 15.156981
1452 1453 -9.207863
1453 4 -6.359361
1453 1451 -0.088312
1453 1452 -7.259034
1453 1453 14.706707
1454 4 -3.508942
1454 1423 -2.702703
1454 1454 13.507695
1454 1455 -7.894498
1454 1456 1.598447
1455 2 -0.022523
1455 4 -0.499366
1455 1454 -7.101913
1455 1455 16.868995
1455 1456 -8.245193
1456 4 -6.496552
1456 1454 1.097887
1456 1455 -7.910719
1456 1456 14.309385
1457 4 -2.652793
1457 1419 -2.702703
1457 1457 10.403607
1457 1458 -6.375188
1457 1459 2.327077
1458 2 -0.022523
1458 4 -0.728103
1458 1457 -4.198492
1458 1458 15.156981
1458 1459 -9.207863
1459 4 -6.359361
1459 1457 -0.088312
1459 1458 -7.259034
1459 1459 14.706707
1460 4 -3.508942
1460 1423 -2.702703
1460 1460 13.507695
1460 1461 -7.894498
1460 1462 1.598447
1461 2 -0.022523
1461 4 -0.499366
1461 1460 -7.101913
1461 1461 16.868995
1461 1462 -8.245193
1462 4 -6.496552
1462 1460 1.097887
1462 1461 -7.910719
1462 1462 14.309385
1463 4 -2.652793
1463 1419 -2.702703
1463 1463 10.403607
1463 1464 -6.375188
1463 1465 2.327077
1464 2 -0.022523
1464 4 -0.728103
1464 1463 -4.198492
1464 1464 15.156981
1464 1465 -9.207863
1465 4 -6.359361
1465 1463 -0.088312
1465 1464 -7.259034
1465 1465 14.706707
1466 4 -3.508942
1466 1423 -2.702703
1466 1466 13.507695
1466 1467 -7.894498
1466 1468 1.598447
1467 2 -0.022523
1467 4 -0.499366
1467 1466 -7.101913
1467 1467 16.868995
1467 1468 -8.245193
1468 4 -6.496552
1468 1466 1.097887
1468 1467 -7.910719
1468 1468 14.309385
1469 4 -2.652793
1469 1419 -2.702703
1469 1469 10.403607
1469 1470 -6.375188
1469 1471 2.327077
1470 2 -0.022523
1470 4 -0.728103
1470 1469 -4.198492
1470 1470 15.156981
1470 1471 -9.207863
1471 4 -6.359361
1471 1469 -0.088312
1471 1470 -7.259034
1471 1471 14.706707
1472 4 -3.508942
1472 1423 -2.702703
1472 1472 13.507695
1472 1473 -7.894498
1472 1474 1.598447
1473 2 -0.022523
1473 4 -0.499366
1473 1472 -7.101913
1473 1473 16.868995
1473 1474 -8.245193
1474 4 -6.496552
1474 1472 1.097887
1474 1473 -7.910719
1474 1474 14.309385
1475 4 -2.652793
1475 1419 -2.702703
1475 1475 10.403607
1475 1476 -6.375188
1475 1477 2.327077
1476 2 -0.022523
1476 4 -0.728103
1476 1475 -4.198492
1476 1476 15.156981
1476 1477 -9.207863
1477 4 -6.359361
1477 1475 -0.088312
1477 1476 -7.259034
1477 1477 14.706707
1478 4 -3.508942
1478 1423 -2.702703
1478 1478 13.507695
1478 1479 -7.894498
1478 1480 1.598447
1479 2 -0.022523
1479 4 -0.499366
1479 1478 -7.101913
1479 1479 16.868995
1479 1480 -8.245193
1480 4 -6.496552
1480 1478 1.097887
1480 1479 -7.910719
1480 1480 14.309385
1481 4 -2.652782
1481 1419 -2.702703
1481 1481 10.403613
1481 1482 -6.375199
1481 1483 2.327071
1482 2 -0.022523
1482 4 -0.728104
1482 1481 -4.198494
1482 1482 15.156979
1482 1483 -9.207858
1483 4 -7.64256
1483 1481 -0.088315
1483 1482 -7.259037
1483 1483 15.989913
1484 4 -3.508944
1484 1423 -2.702703
1484 1484 13.507729
1484 1485 -7.894509
1484 1486 1.598427
1485 2 -0.022523
1485 4 -0.499355
1485 1484 -7.10197
1485 1485 16.86901
1485 1486 -8.245163
1486 4 -7.780072
1486 1484 1.097916
1486 1485 -7.910727
1486 1486 15.592883
1487 1 -15.837
1487 2 -74.9745
1487 4 -1.555
1487 6 -11.935
1487 1299 -0.4245
1487 1300 -2.832
1487 1487 296.098563
1487 1488 -4.054065
1487 1491 -0.03
1487 1495 -4.054065
1487 1501 -4.054065
1487 1507 -4.054065
1487 1513 -4.054065
1487 1519 -4.054065
1487 1525 -4.054065
1487 1531 -4.054065
1487 1537 -4.054065
1487 1543 -4.054065
1487 1549 -4.054065
1487 1555 -4.054065
1487 1561 -4.054065
1487 1567 -4.054065
1487 1573 -4.054065
1487 1579 -4.054065
1487 1585 -4.054065
1487 1591 -4.054065
1487 1597 -4.054065
1487 1603 -4.054065
1487 1609 -4.054065
1487 1615 -4.054065
1487 1621 -4.054065
1487 1627 -4.054065
1487 1633 -4.054065
1487 1639 -4.054065
1487 1645 -4.054065
1487 1651 -4.054065
1487 1657 -4.054065
1487 1663 -4.054065
1487 1669 -4.054065
1487 1675 -4.054065
1487 1681 -4.054065
1487 1687 -4.054065
1487 1693 -4.054065
1487 1699 -4.054065
1487 1705 -4.054065
1487 1711 -4.054065
1487 1717 -4.054065
1487 1723 -4.054065
1487 1729 -4.054065
1487 1735 -4.054065
1487 1741 -4.054065
1487 1747 -4.054065
1487 1753 -2.674898
1487 1761 -0.802472
1487 1767 -1.216214
1487 1773 -1.216214
1487 1779 -1.216214
1487 1785 -1.216214
1487 1791 -0.789478
1488 2 -4.543265
1488 1487 -4.054065
1488 1488 18.632257
1488 1489 -11.206559
1488 1490 2.171632
1489 2 -0.551676
1489 6 -0.013755
1489 1488 -10.290392
1489 1489 23.504664
1489 1490 -11.648841
1490 2 -10.147587
1490 1488 1.338997
1490 1489 -11.212102
1490 1490 21.020693
1491 1 -15.7255
1491 2 -75.113
1491 4 -1.5575
1491 6 -11.9355
1491 1299 -2.8285
1491 1300 -0.4245
1491 1487 -0.03
1491 1491 296.125063
1491 1492 -4.054065
1491 1498 -4.054065
1491 1504 -4.054065
1491 1510 -4.054065
1491 1516 -4.054065
1491 1522 -4.054065
1491 1528 -4.054065
1491 1534 -4.054065
1491 1540 -4.054065
1491 1546 -4.054065
1491 1552 -4.054065
1491 1558 -4.054065
1491 1564 -4.054065
1491 1570 -4.054065
1491 1576 -4.054065
1491 1582 -4.054065
1491 1588 -4.054065
1491 1594 -4.054065
1491 1600 -4.054065
1491 1606 -4.054065
1491 1612 -4.054065
1491 1618 -4.054065
1491 1624 -4.054065
1491 1630 -4.054065
1491 1636 -4.054065
1491 1642 -4.054065
1491 1648 -4.054065
1491 1654 -4.054065
1491 1660 -4.054065
1491 1666 -4.054065
1491 1672 -4.054065
1491 1678 -4.054065
1491 1684 -4.054065
1491 1690 -4.054065
1491 1696 -4.054065
1491 1702 -4.054065
1491 1708 -4.054065
1491 1714 -4.054065
1491 1720 -4.054065
1491 1726 -4.054065
1491 1732 -4.054065
1491 1738 -4.054065
1491 1744 -4.054065
1491 1750 -4.054065
1491 1756 -2.674898
1491 1764 -0.802472
1491 1770 -1.216214
1491 1776 -1.216214
1491 1782 -1.216214
1491 1788 -1.216214
1491 1794 -0.789478
1492 2 -4.569565
1492 1491 -4.054065
1492 1492 18.708179
1492 1493 -11.217414
1492 1494 2.132864
1493 2 -0.549793
1493 6 -0.013755
1493 1492 -10.376321
1493 1493 23.519942
1493 1494 -11.580073
1494 2 -10.148605
1494 1492 1.37982
1494 1493 -11.217546
1494 1494 20.98633
1495 2 -4.543265
1495 1487 -4.054065
1495 1495 18.632244
1495 1496 -11.206555
1495 1497 2.171641
1496 2 -0.551677
1496 6 -0.013755
1496 1495 -10.290369
1496 1496 23.50466
1496 1497 -11.648858
1497 2 -8.6233
1497 1495 1.338985
1497 1496 -11.2121
1497 1497 19.496415
1498 2 -4.569565
1498 1491 -4.054065
1498 1498 18.708179
1498 1499 -11.217414
1498 1500 2.132865
1499 2 -0.549793
1499 6 -0.013755
1499 1498 -10.376321
1499 1499 23.519942
1499 1500 -11.580073
1500 2 -8.624291
1500 1498 1.37982
1500 1499 -11.217545
1500 1500 19.462017
1501 2 -4.543265
1501 1487 -4.054065
1501 1501 18.632244
1501 1502 -11.206555
1501 1503 2.171641
1502 2 -0.551677
1502 6 -0.013755
1502 1501 -10.290369
1502 1502 23.50466
1502 1503 -11.648858
1503 2 -8.6233
1503 1501 1.338985
1503 1502 -11.2121
1503 1503 19.496415
1504 2 -4.569565
1504 1491 -4.054065
1504 1504 18.708179
1504 1505 -11.217414
1504 1506 2.132865
1505 2 -0.549793
1505 6 -0.013755
1505 1504 -10.376321
1505 1505 23.519942
1505 1506 -11.580073
1506 2 -8.624291
1506 1504 1.37982
1506 1505 -11.217545
1506 1506 19.462017
1507 2 -4.543265
1507 1487 -4.054065
1507 1507 18.632244
1507 1508 -11.206555
1507 1509 2.171641
1508 2 -0.551677
1508 6 -0.013755
1508 1507 -10.290369
1508 1508 23.50466
1508 1509 -11.648858
1509 2 -8.6233
1509 1507 1.338985
1509 1508 -11.2121
1509 1509 19.496415
1510 2 -4.569565
1510 1491 -4.054065
1510 1510 18.708179
1510 1511 -11.217414
1510 1512 2.132865
1511 2 -0.549793
1511 6 -0.013755
1511 1510 -10.376321
1511 1511 23.519942
1511 1512 -11.580073
1512 2 -8.624291
1512 1510 1.37982
1512 1511 -11.217545
1512 1512 19.462017
1513 2 -4.543265
1513 1487 -4.054065
1513 1513 18.632244
1513 1514 -11.206555
1513 1515 2.171641
1514 2 -0.551677
1514 6 -0.013755
1514 1513 -10.290369
1514 1514 23.50466
1514 1515 -11.648858
1515 2 -8.6233
1515 1513 1.338985
1515 1514 -11.2121
1515 1515 19.496415
1516 2 -4.569565
1516 1491 -4.054065
1516 1516 18.708179
1516 1517 -11.217414
1516 1518 2.132865
1517 2 -0.549793
1517 6 -0.013755
1517 1516 -10.376321
1517 1517 23.519942
1517 1518 -11.580073
1518 2 -8.624291
1518 1516 1.37982
1518 1517 -11.217545
1518 1518 19.462017
1519 2 -4.543265
1519 1487 -4.054065
1519 1519 18.632244
1519 1520 -11.206555
1519 1521 2.171641
1520 2 -0.551677
1520 6 -0.013755
1520 1519 -10.290369
1520 1520 23.50466
1520 1521 -11.648858
1521 2 -8.6233
1521 1519 1.338985
1521 1520 -11.2121
1521 1521 19.496415
1522 2 -4.569565
1522 1491 -4.054065
1522 1522 18.708179
1522 1523 -11.217414
1522 1524 2.132865
1523 2 -0.549793
1523 6 -0.013755
1523 1522 -10.376321
1523 1523 23.519942
1523 1524 -11.580073
1524 2 -8.624291
1524 1522 1.37982
1524 1523 -11.217545
1524 1524 19.462017
1525 2 -4.543265
1525 1487 -4.054065
1525 1525 18.632244
1525 1526 -11.206555
1525 1527 2.171641
1526 2 -0.551677
1526 6 -0.013755
1526 1525 -10.290369
1526 1526 23.50466
1526 1527 -11.648858
1527 2 -8.6233
1527 1525 1.338985
1527 1526 -11.2121
1527 1527 19.496415
1528 2 -4.569565
1528 1491 -4.054065
1528 1528 18.708179
1528 1529 -11.217414
1528 1530 2.132865
1529 2 -0.549793
1529 6 -0.013755
1529 1528 -10.376321
1529 1529 23.519942
1529 1530 -11.580073
1530 2 -8.624291
1530 1528 1.37982
1530 1529 -11.217545
1530 1530 19.462017
1531 2 -4.543265
1531 1487 -4.054065
1531 1531 18.632244
1531 1532 -11.206555
1531 1533 2.171641
1532 2 -0.551677
1532 6 -0.013755
1532 1531 -10.290369
1532 1532 23.50466
1532 1533 -11.648858
1533 2 -8.6233
1533 1531 1.338985
1533 1532 -11.2121
1533 1533 19.496415
1534 2 -4.569565
1534 1491 -4.054065
1534 1534 18.708179
1534 1535 -11.217414
1534 1536 2.132865
1535 2 -0.549793
1535 6 -0.013755
1535 1534 -10.376321
1535 1535 23.519942
1535 1536 -11.580073
1536 2 -8.624291
1536 1534 1.37982
1536 1535 -11.217545
1536 1536 19.462017
1537 2 -4.543265
1537 1487 -4.054065
1537 1537 18.632244
1537 1538 -11.206555
1537 1539 2.171641
1538 2 -0.551677
1538 6 -0.013755
1538 1537 -10.290369
1538 1538 23.50466
1538 1539 -11.648858
1539 2 -8.6233
1539 1537 1.338985
1539 1538 -11.2121
1539 1539 19.496415
1540 2 -4.569565
1540 1491 -4.054065
1540 1540 18.708179
1540 1541 -11.217414
1540 1542 2.132865
1541 2 -0.549793
1541 6 -0.013755
1541 1540 -10.376321
1541 1541 23.519942
1541 1542 -11.580073
1542 2 -8.624291
1542 1540 1.37982
1542 1541 -11.217545
1542 1542 19.462017
1543 2 -4.543265
1543 1487 -4.054065
1543 1543 18.632244
1543 1544 -11.206555
1543 1545 2.171641
1544 2 -0.551677
1544 6 -0.013755
1544 1543 -10.290369
1544 1544 23.50466
1544 1545 -11.648858
1545 2 -8.6233
1545 1543 1.338985
1545 1544 -11.2121
1545 1545 19.496415
1546 2 -4.569565
1546 1491 -4.054065
1546 1546 18.708179
1546 1547 -11.217414
1546 1548 2.132865
1547 2 -0.549793
1547 6 -0.013755
1547 1546 -10.376321
1547 1547 23.519942
1547 1548 -11.580073
1548 2 -8.624291
1548 1546 1.37982
1548 1547 -11.217545
1548 1548 19.462017
1549 2 -4.543265
1549 1487 -4.054065
1549 1549 18.632244
1549 1550 -11.206555
1549 1551 2.171641
1550 2 -0.551677
1550 6 -0.013755
1550 1549 -10.290369
1550 1550 23.50466
1550 1551 -11.648858
1551 2 -8.6233
1551 1549 1.338985
1551 1550 -11.2121
1551 1551 19.496415
1552 2 -4.569565
1552 1491 -4.054065
1552 1552 18.708179
1552 1553 -11.217414
1552 1554 2.132865
1553 2 -0.549793
1553 6 -0.013755
1553 1552 -10.376321
1553 1553 23.519942
1553 1554 -11.580073
1554 2 -8.624291
1554 1552 1.37982
1554 1553 -11.217545
1554 1554 19.462017
1555 2 -4.543265
1555 1487 -4.054065
1555 1555 18.632244
1555 1556 -11.206555
1555 1557 2.171641
1556 2 -0.551677
1556 6 -0.013755
1556 1555 -10.290369
1556 1556 23.50466
1556 1557 -11.648858
1557 2 -8.6233
1557 1555 1.338985
1557 1556 -11.2121
1557 1557 19.496415
1558 2 -4.569565
1558 1491 -4.054065
1558 1558 18.708179
1558 1559 -11.217414
1558 1560 2.132865
1559 2 -0.549793
1559 6 -0.013755
1559 1558 -10.376321
1559 1559 23.519942
1559 1560 -11.580073
1560 2 -8.624291
1560 1558 1.37982
1560 1559 -11.217545
1560 1560 19.462017
1561 2 -4.543265
1561 1487 -4.054065
1561 1561 18.632244
1561 1562 -11.206555
1561 1563 2.171641
1562 2 -0.551677
1562 6 -0.013755
1562 1561 -10.290369
1562 1562 23.50466
1562 1563 -11.648858
1563 2 -8.6233
1563 1561 1.338985
1563 1562 -11.2121
1563 1563 19.496415
1564 2 -4.569565
1564 1491 -4.054065
1564 1564 18.708179
1564 1565 -11.217414
1564 1566 2.132865
1565 2 -0.549793
1565 6 -0.013755
1565 1564 -10.376321
1565 1565 23.519942
1565 1566 -11.580073
1566 2 -8.624291
1566 1564 1.37982
1566 1565 -11.217545
1566 1566 19.462017
1567 2 -4.543265
1567 1487 -4.054065
1567 1567 18.632244
1567 1568 -11.206555
1567 1569 2.171641
1568 2 -0.551677
1568 6 -0.013755
1568 1567 -10.290369
1568 1568 23.50466
1568 1569 -11.648858
1569 2 -8.6233
1569 1567 1.338985
1569 1568 -11.2121
1569 1569 19.496415
1570 2 -4.569565
1570 1491 -4.054065
1570 1570 18.708179
1570 1571 -11.217414
1570 1572 2.132865
1571 2 -0.549793
1571 6 -0.013755
1571 1570 -10.376321
1571 1571 23.519942
1571 1572 -11.580073
1572 2 -8.624291
1572 1570 1.37982
1572 1571 -11.217545
1572 1572 19.462017
1573 2 -4.543265
1573 1487 -4.054065
1573 1573 18.632244
1573 1574 -11.206555
1573 1575 2.171641
1574 2 -0.551677
1574 6 -0.013755
1574 1573 -10.290369
1574 1574 23.50466
1574 1575 -11.648858
1575 2 -8.6233
1575 1573 1.338985
1575 1574 -11.2121
1575 1575 19.496415
1576 2 -4.569565
1576 1491 -4.054065
1576 1576 18.708179
1576 1577 -11.217414
1576 1578 2.132865
1577 2 -0.549793
1577 6 -0.013755
1577 1576 -10.376321
1577 1577 23.519942
1577 1578 -11.580073
1578 2 -8.624291
1578 1576 1.37982
1578 1577 -11.217545
1578 1578 19.462017
1579 2 -4.543265
1579 1487 -4.054065
1579 1579 18.632244
1579 1580 -11.206555
1579 1581 2.171641
1580 2 -0.551677
1580 6 -0.013755
1580 1579 -10.290369
1580 1580 23.50466
1580 1581 -11.648858
1581 2 -8.6233
1581 1579 1.338985
1581 1580 -11.2121
1581 1581 19.496415
1582 2 -4.569565
1582 1491 -4.054065
1582 1582 18.708179
1582 1583 -11.217414
1582 1584 2.132865
1583 2 -0.549793
1583 6 -0.013755
1583 1582 -10.376321
1583 1583 23.519942
1583 1584 -11.580073
1584 2 -8.624291
1584 1582 1.37982
1584 1583 -11.217545
1584 1584 19.462017
1585 2 -4.543265
1585 1487 -4.054065
1585 1585 18.632244
1585 1586 -11.206555
1585 1587 2.171641
1586 2 -0.551677
1586 6 -0.013755
1586 1585 -10.290369
1586 1586 23.50466
1586 1587 -11.648858
1587 2 -8.6233
1587 1585 1.338985
1587 1586 -11.2121
1587 1587 19.496415
1588 2 -4.569565
1588 1491 -4.054065
1588 1588 18.708179
1588 1589 -11.217414
1588 1590 2.132865
1589 2 -0.549793
1589 6 -0.013755
1589 1588 -10.376321
1589 1589 23.519942
1589 1590 -11.580073
1590 2 -8.624291
1590 1588 1.37982
1590 1589 -11.217545
1590 1590 19.462017
1591 2 -4.543265
1591 1487 -4.054065
1591 1591 18.632244
1591 1592 -11.206555
1591 1593 2.171641
1592 2 -0.551677
1592 6 -0.013755
1592 1591 -10.290369
1592 1592 23.50466
1592 1593 -11.648858
1593 2 -8.6233
1593 1591 1.338985
1593 1592 -11.2121
1593 1593 19.496415
1594 2 -4.569565
1594 1491 -4.054065
1594 1594 18.708179
1594 1595 -11.217414
1594 1596 2.132865
1595 2 -0.549793
1595 6 -0.013755
1595 1594 -10.376321
1595 1595 23.519942
1595 1596 -11.580073
1596 2 -8.624291
1596 1594 1.37982
1596 1595 -11.217545
1596 1596 19.462017
1597 2 -4.543265
1597 1487 -4.054065
1597 1597 18.632244
1597 1598 -11.206555
1597 1599 2.171641
1598 2 -0.551677
1598 6 -0.013755
1598 1597 -10.290369
1598 1598 23.50466
1598 1599 -11.648858
1599 2 -8.6233
1599 1597 1.338985
1599 1598 -11.2121
1599 1599 19.496415
1600 2 -4.569565
1600 1491 -4.054065
1600 1600 18.708179
1600 1601 -11.217414
1600 1602 2.132865
1601 2 -0.549793
1601 6 -0.013755
1601 1600 -10.376321
1601 1601 23.519942
1601 1602 -11.580073
1602 2 -8.624291
1602 1600 1.37982
1602 1601 -11.217545
1602 1602 19.462017
1603 2 -4.543265
1603 1487 -4.054065
1603 1603 18.632244
1603 1604 -11.206555
1603 1605 2.171641
1604 2 -0.551677
1604 6 -0.013755
1604 1603 -10.290369
1604 1604 23.50466
1604 1605 -11.648858
1605 2 -8.6233
1605 1603 1.338985
1605 1604 -11.2121
1605 1605 19.496415
1606 2 -4.569565
1606 1491 -4.054065
1606 1606 18.708179
1606 1607 -11.217414
1606 1608 2.132865
1607 2 -0.549793
1607 6 -0.013755
1607 1606 -10.376321
1607 1607 23.519942
1607 1608 -11.580073
1608 2 -8.624291
1608 1606 1.37982
1608 1607 -11.217545
1608 1608 19.462017
1609 2 -4.543265
1609 1487 -4.054065
1609 1609 18.632244
1609 1610 -11.206555
1609 1611 2.171641
1610 2 -0.551677
1610 6 -0.013755
1610 1609 -10.290369
1610 1610 23.50466
1610 1611 -11.648858
1611 2 -8.6233
1611 1609 1.338985
1611 1610 -11.2121
1611 1611 19.496415
1612 2 -4.569565
1612 1491 -4.054065
1612 1612 18.708179
1612 1613 -11.217414
1612 1614 2.132865
1613 2 -0.549793
1613 6 -0.013755
1613 1612 -10.376321
1613 1613 23.519942
1613 1614 -11.580073
1614 2 -8.624291
1614 1612 1.37982
1614 1613 -11.217545
1614 1614 19.462017
1615 2 -4.543265
1615 1487 -4.054065
1615 1615 18.632244
1615 1616 -11.206555
1615 1617 2.171641
1616 2 -0.551677
1616 6 -0.013755
1616 1615 -10.290369
1616 1616 23.50466
1616 1617 -11.648858
1617 2 -8.6233
1617 1615 1.338985
1617 1616 -11.2121
1617 1617 19.496415
1618 2 -4.569565
1618 1491 -4.054065
1618 1618 18.708179
1618 1619 -11.217414
1618 1620 2.132865
1619 2 -0.549793
1619 6 -0.013755
1619 1618 -10.376321
1619 1619 23.519942
1619 1620 -11.580073
1620 2 -8.624291
1620 1618 1.37982
1620 1619 -11.217545
1620 1620 19.462017
1621 2 -4.543265
1621 1487 -4.054065
1621 1621 18.632244
1621 1622 -11.206555
1621 1623 2.171641
1622 2 -0.551677
1622 6 -0.013755
1622 1621 -10.290369
1622 1622 23.50466
1622 1623 -11.648858
1623 2 -8.6233
1623 1621 1.338985
1623 1622 -11.2121
1623 1623 19.496415
1624 2 -4.569565
1624 1491 -4.054065
1624 1624 18.708179
1624 1625 -11.217414
1624 1626 2.132865
1625 2 -0.549793
1625 6 -0.013755
1625 1624 -10.376321
1625 1625 23.519942
1625 1626 -11.580073
1626 2 -8.624291
1626 1624 1.37982
1626 1625 -11.217545
1626 1626 19.462017
1627 2 -4.543265
1627 1487 -4.054065
1627 1627 18.632244
1627 1628 -11.206555
1627 1629 2.171641
1628 2 -0.551677
1628 6 -0.013755
1628 1627 -10.290369
1628 1628 23.50466
1628 1629 -11.648858
1629 2 -8.6233
1629 1627 1.338985
1629 1628 -11.2121
1629 1629 19.496415
1630 2 -4.569565
1630 1491 -4.054065
1630 1630 18.708179
1630 1631 -11.217414
1630 1632 2.132865
1631 2 -0.549793
1631 6 -0.013755
1631 1630 -10.376321
1631 1631 23.519942
1631 1632 -11.580073
1632 2 -8.624291
1632 1630 1.37982
1632 1631 -11.217545
1632 1632 19.462017
1633 2 -4.543265
1633 1487 -4.054065
1633 1633 18.632244
1633 1634 -11.206555
1633 1635 2.171641
1634 2 -0.551677
1634 6 -0.013755
1634 1633 -10.290369
1634 1634 23.50466
1634 1635 -11.648858
1635 2 -8.6233
1635 1633 1.338985
1635 1634 -11.2121
1635 1635 19.496415
1636 2 -4.569565
1636 1491 -4.054065
1636 1636 18.708179
1636 1637 -11.217414
1636 1638 2.132865
1637 2 -0.549793
1637 6 -0.013755
1637 1636 -10.376321
1637 1637 23.519942
1637 1638 -11.580073
1638 2 -8.624291
1638 1636 1.37982
1638 1637 -11.217545
1638 1638 19.462017
1639 2 -4.543265
1639 1487 -4.054065
1639 1639 18.632244
1639 1640 -11.206555
1639 1641 2.171641
1640 2 -0.551677
1640 6 -0.013755
1640 1639 -10.290369
1640 1640 23.50466
1640 1641 -11.648858
1641 2 -8.6233
1641 1639 1.338985
1641 1640 -11.2121
1641 1641 19.496415
1642 2 -4.569565
1642 1491 -4.054065
1642 1642 18.708179
1642 1643 -11.217414
1642 1644 2.132865
1643 2 -0.549793
1643 6 -0.013755
1643 1642 -10.376321
1643 1643 23.519942
1643 1644 -11.580073
1644 2 -8.624291
1644 1642 1.37982
1644 1643 -11.217545
1644 1644 19.462017
1645 2 -4.543265
1645 1487 -4.054065
1645 1645 18.632244
1645 1646 -11.206555
1645 1647 2.171641
1646 2 -0.551677
1646 6 -0.013755
1646 1645 -10.290369
1646 1646 23.50466
1646 1647 -11.648858
1647 2 -8.6233
1647 1645 1.338985
1647 1646 -11.2121
1647 1647 19.496415
1648 2 -4.569565
1648 1491 -4.054065
1648 1648 18.708179
1648 1649 -11.217414
1648 1650 2.132865
1649 2 -0.549793
1649 6 -0.013755
1649 1648 -10.376321
1649 1649 23.519942
1649 1650 -11.580073
1650 2 -8.624291
1650 1648 1.37982
1650 1649 -11.217545
1650 1650 19.462017
1651 2 -4.543265
1651 1487 -4.054065
1651 1651 18.632244
1651 1652 -11.206555
1651 1653 2.171641
1652 2 -0.551677
1652 6 -0.013755
1652 1651 -10.290369
1652 1652 23.50466
1652 1653 -11.648858
1653 2 -8.6233
1653 1651 1.338985
1653 1652 -11.2121
1653 1653 19.496415
1654 2 -4.569565
1654 1491 -4.054065
1654 1654 18.708179
1654 1655 -11.217414
1654 1656 2.132865
1655 2 -0.549793
1655 6 -0.013755
1655 1654 -10.376321
1655 1655 23.519942
1655 1656 -11.580073
1656 2 -8.624291
1656 1654 1.37982
1656 1655 -11.217545
1656 1656 19.462017
1657 2 -4.543265
1657 1487 -4.054065
1657 1657 18.632244
1657 1658 -11.206555
1657 1659 2.171641
1658 2 -0.551677
1658 6 -0.013755
1658 1657 -10.290369
1658 1658 23.50466
1658 1659 -11.648858
1659 2 -8.6233
1659 1657 1.338985
1659 1658 -11.2121
1659 1659 19.496415
1660 2 -4.569565
1660 1491 -4.054065
1660 1660 18.708179
1660 1661 -11.217414
1660 1662 2.132865
1661 2 -0.549793
1661 6 -0.013755
1661 1660 -10.376321
1661 1661 23.519942
1661 1662 -11.580073
1662 2 -8.624291
1662 1660 1.37982
1662 1661 -11.217545
1662 1662 19.462017
1663 2 -4.543265
1663 1487 -4.054065
1663 1663 18.632244
1663 1664 -11.206555
1663 1665 2.171641
1664 2 -0.551677
1664 6 -0.013755
1664 1663 -10.290369
1664 1664 23.50466
1664 1665 -11.648858
1665 2 -8.6233
1665 1663 1.338985
1665 1664 -11.2121
1665 1665 19.496415
1666 2 -4.569565
1666 1491 -4.054065
1666 1666 18.708179
1666 1667 -11.217414
1666 1668 2.132865
1667 2 -0.549793
1667 6 -0.013755
1667 1666 -10.376321
1667 1667 23.519942
1667 1668 -11.580073
1668 2 -8.624291
1668 1666 1.37982
1668 1667 -11.217545
1668 1668 19.462017
1669 2 -4.543265
1669 1487 -4.054065
1669 1669 18.632244
1669 1670 -11.206555
1669 1671 2.171641
1670 2 -0.551677
1670 6 -0.013755
1670 1669 -10.290369
1670 1670 23.50466
1670 1671 -11.648858
1671 2 -8.6233
1671 1669 1.338985
1671 1670 -11.2121
1671 1671 19.496415
1672 2 -4.569565
1672 1491 -4.054065
1672 1672 18.708179
1672 1673 -11.217414
1672 1674 2.132865
1673 2 -0.549793
1673 6 -0.013755
1673 1672 -10.376321
1673 1673 23.519942
1673 1674 -11.580073
1674 2 -8.624291
1674 1672 1.37982
1674 1673 -11.217545
1674 1674 19.462017
1675 2 -4.543265
1675 1487 -4.054065
1675 1675 18.632244
1675 1676 -11.206555
1675 1677 2.171641
1676 2 -0.551677
1676 6 -0.013755
1676 1675 -10.290369
1676 1676 23.50466
1676 1677 -11.648858
1677 2 -8.6233
1677 1675 1.338985
1677 1676 -11.2121
1677 1677 19.496415
1678 2 -4.569565
1678 1491 -4.054065
1678 1678 18.708179
1678 1679 -11.217414
1678 1680 2.132865
1679 2 -0.549793
1679 6 -0.013755
1679 1678 -10.376321
1679 1679 23.519942
1679 1680 -11.580073
1680 2 -8.624291
1680 1678 1.37982
1680 1679 -11.217545
1680 1680 19.462017
1681 2 -4.543265
1681 1487 -4.054065
1681 1681 18.632244
1681 1682 -11.206555
1681 1683 2.171641
1682 2 -0.551677
1682 6 -0.013755
1682 1681 -10.290369
1682 1682 23.50466
1682 1683 -11.648858
1683 2 -8.6233
1683 1681 1.338985
1683 1682 -11.2121
1683 1683 19.496415
1684 2 -4.569565
1684 1491 -4.054065
1684 1684 18.708179
1684 1685 -11.217414
1684 1686 2.132865
1685 2 -0.549793
1685 6 -0.013755
1685 1684 -10.376321
1685 1685 23.519942
1685 1686 -11.580073
1686 2 -8.624291
1686 1684 1.37982
1686 1685 -11.217545
1686 1686 19.462017
1687 2 -4.543265
1687 1487 -4.054065
1687 1687 18.632244
1687 1688 -11.206555
1687 1689 2.171641
1688 2 -0.551677
1688 6 -0.013755
1688 1687 -10.290369
1688 1688 23.50466
1688 1689 -11.648858
1689 2 -8.6233
1689 1687 1.338985
1689 1688 -11.2121
1689 1689 19.496415
1690 2 -4.569565
1690 1491 -4.054065
1690 1690 18.708179
1690 1691 -11.217414
1690 1692 2.132865
1691 2 -0.549793
1691 6 -0.013755
1691 1690 -10.376321
1691 1691 23.519942
1691 1692 -11.580073
1692 2 -8.624291
1692 1690 1.37982
1692 1691 -11.217545
1692 1692 19.462017
1693 2 -4.543265
1693 1487 -4.054065
1693 1693 18.632244
1693 1694 -11.206555
1693 1695 2.171641
1694 2 -0.551677
1694 6 -0.013755
1694 1693 -10.290369
1694 1694 23.50466
1694 1695 -11.648858
1695 2 -8.6233
1695 1693 1.338985
1695 1694 -11.2121
1695 1695 19.496415
1696 2 -4.569565
1696 1491 -4.054065
1696 1696 18.708179
1696 1697 -11.217414
1696 1698 2.132865
1697 2 -0.549793
1697 6 -0.013755
1697 1696 -10.376321
1697 1697 23.519942
1697 1698 -11.580073
1698 2 -8.624291
1698 1696 1.37982
1698 1697 -11.217545
1698 1698 19.462017
1699 2 -4.543265
1699 1487 -4.054065
1699 1699 18.632244
1699 1700 -11.206555
1699 1701 2.171641
1700 2 -0.551677
1700 6 -0.013755
1700 1699 -10.290369
1700 1700 23.50466
1700 1701 -11.648858
1701 2 -8.6233
1701 1699 1.338985
1701 1700 -11.2121
1701 1701 19.496415
1702 2 -4.569565
1702 1491 -4.054065
1702 1702 18.708179
1702 1703 -11.217414
1702 1704 2.132865
1703 2 -0.549793
1703 6 -0.013755
1703 1702 -10.376321
1703 1703 23.519942
1703 1704 -11.580073
1704 2 -8.624291
1704 1702 1.37982
1704 1703 -11.217545
1704 1704 19.462017
1705 2 -4.543265
1705 1487 -4.054065
1705 1705 18.632244
1705 1706 -11.206555
1705 1707 2.171641
1706 2 -0.551677
1706 6 -0.013755
1706 1705 -10.290369
1706 1706 23.50466
1706 1707 -11.648858
1707 2 -8.6233
1707 1705 1.338985
1707 1706 -11.2121
1707 1707 19.496415
1708 2 -4.569565
1708 1491 -4.054065
1708 1708 18.708179
1708 1709 -11.217414
1708 1710 2.132865
1709 2 -0.549793
1709 6 -0.013755
1709 1708 -10.376321
1709 1709 23.519942
1709 1710 -11.580073
1710 2 -8.624291
1710 1708 1.37982
1710 1709 -11.217545
1710 1710 19.462017
1711 2 -4.543265
1711 1487 -4.054065
1711 1711 18.632244
1711 1712 -11.206555
1711 1713 2.171641
1712 2 -0.551677
1712 6 -0.013755
1712 1711 -10.290369
1712 1712 23.50466
1712 1713 -11.648858
1713 2 -8.6233
1713 1711 1.338985
1713 1712 -11.2121
1713 1713 19.496415
1714 2 -4.569565
1714 1491 -4.054065
1714 1714 18.708179
1714 1715 -11.217414
1714 1716 2.132865
1715 2 -0.549793
1715 6 -0.013755
1715 1714 -10.376321
1715 1715 23.519942
1715 1716 -11.580073
1716 2 -8.624291
1716 1714 1.37982
1716 1715 -11.217545
1716 1716 19.462017
1717 2 -4.543265
1717 1487 -4.054065
1717 1717 18.632244
1717 1718 -11.206555
1717 1719 2.171641
1718 2 -0.551677
1718 6 -0.013755
1718 1717 -10.290369
1718 1718 23.50466
1718 1719 -11.648858
1719 2 -8.6233
1719 1717 1.338985
1719 1718 -11.2121
1719 1719 19.496415
1720 2 -4.569565
1720 1491 -4.054065
1720 1720 18.708179
1720 1721 -11.217414
1720 1722 2.132865
1721 2 -0.549793
1721 6 -0.013755
1721 1720 -10.376321
1721 1721 23.519942
1721 1722 -11.580073
1722 2 -8.624291
1722 1720 1.37982
1722 1721 -11.217545
1722 1722 19.462017
1723 2 -4.543265
1723 1487 -4.054065
1723 1723 18.632244
1723 1724 -11.206555
1723 1725 2.171641
1724 2 -0.551677
1724 6 -0.013755
1724 1723 -10.290369
1724 1724 23.50466
1724 1725 -11.648858
1725 2 -8.6233
1725 1723 1.338985
1725 1724 -11.2121
1725 1725 19.496415
1726 2 -4.569565
1726 1491 -4.054065
1726 1726 18.708179
1726 1727 -11.217414
1726 1728 2.132865
1727 2 -0.549793
1727 6 -0.013755
1727 1726 -10.376321
1727 1727 23.519942
1727 1728 -11.580073
1728 2 -8.624291
1728 1726 1.37982
1728 1727 -11.217545
1728 1728 19.462017
1729 2 -4.543265
1729 1487 -4.054065
1729 1729 18.632244
1729 1730 -11.206555
1729 1731 2.171641
1730 2 -0.551677
1730 6 -0.013755
1730 1729 -10.290369
1730 1730 23.50466
1730 1731 -11.648858
1731 2 -8.6233
1731 1729 1.338985
1731 1730 -11.2121
1731 1731 19.496415
1732 2 -4.569565
1732 1491 -4.054065
1732 1732 18.708179
1732 1733 -11.217414
1732 1734 2.132865
1733 2 -0.549793
1733 6 -0.013755
1733 1732 -10.376321
1733 1733 23.519942
1733 1734 -11.580073
1734 2 -8.624291
1734 1732 1.37982
1734 1733 -11.217545
1734 1734 19.462017
1735 2 -4.543265
1735 1487 -4.054065
1735 1735 18.632244
1735 1736 -11.206555
1735 1737 2.171641
1736 2 -0.551677
1736 6 -0.013755
1736 1735 -10.290369
1736 1736 23.50466
1736 1737 -11.648858
1737 2 -8.6233
1737 1735 1.338985
1737 1736 -11.2121
1737 1737 19.496415
1738 2 -4.569565
1738 1491 -4.054065
1738 1738 18.708179
1738 1739 -11.217414
1738 1740 2.132865
1739 2 -0.549793
1739 6 -0.013755
1739 1738 -10.376321
1739 1739 23.519942
1739 1740 -11.580073
1740 2 -8.624291
1740 1738 1.37982
1740 1739 -11.217545
1740 1740 19.462017
1741 2 -4.543265
1741 1487 -4.054065
1741 1741 18.632244
1741 1742 -11.206555
1741 1743 2.171641
1742 2 -0.551677
1742 6 -0.013755
1742 1741 -10.290369
1742 1742 23.50466
1742 1743 -11.648858
1743 2 -8.6233
1743 1741 1.338985
1743 1742 -11.2121
1743 1743 19.496415
1744 2 -4.569565
1744 1491 -4.054065
1744 1744 18.708179
1744 1745 -11.217414
1744 1746 2.132865
1745 2 -0.549793
1745 6 -0.013755
1745 1744 -10.376321
1745 1745 23.519942
1745 1746 -11.580073
1746 2 -8.624291
1746 1744 1.37982
1746 1745 -11.217545
1746 1746 19.462017
1747 2 -4.543265
1747 1487 -4.054065
1747 1747 18.632244
1747 1748 -11.206555
1747 1749 2.171641
1748 2 -0.551677
1748 6 -0.013755
1748 1747 -10.290369
1748 1748 23.50466
1748 1749 -11.648858
1749 2 -8.6233
1749 1747 1.338985
1749 1748 -11.2121
1749 1749 19.496415
1750 2 -4.569565
1750 1491 -4.054065
1750 1750 18.708179
1750 1751 -11.217414
1750 1752 2.132865
1751 2 -0.549793
1751 6 -0.013755
1751 1750 -10.376321
1751 1751 23.519942
1751 1752 -11.580073
1752 2 -8.624291
1752 1750 1.37982
1752 1751 -11.217545
1752 1752 19.462017
1753 2 -6.924987
1753 1487 -2.674898
1753 1753 19.634816
1753 1754 -11.206559
1753 1755 2.171629
1754 2 -0.551676
1754 6 -0.013755
1754 1753 -10.290398
1754 1754 23.504665
1754 1755 -11.648836
1755 2 -8.6233
1755 1753 1.338999
1755 1754 -11.212102
1755 1755 19.496403
1756 2 -6.965419
1756 1491 -2.674898
1756 1756 19.724866
1756 1757 -11.217414
1756 1758 2.132864
1757 2 -0.549793
1757 6 -0.013755
1757 1756 -10.376321
1757 1757 23.519942
1757 1758 -11.580072
1758 2 -8.624291
1758 1756 1.379821
1758 1757 -11.217546
1758 1758 19.462016
1759 2 -1.327416
1759 1300 -1.216214
1759 1759 6.135984
1759 1760 -3.316129
1759 1761 0.723775
1760 2 -0.164674
1760 1299 -0.045872
1760 1759 -2.889845
1760 1760 7.714913
1760 1761 -3.614522
1761 2 -2.07349
1761 1487 -0.802472
1761 1759 0.299284
1761 1760 -3.33495
1761 1761 6.911627
1762 2 -0.99996
1762 1299 -1.216214
1762 1762 4.896695
1762 1763 -1.786836
1762 1764 0.106315
1763 2 -0.309797
1763 1300 -0.045872
1763 1762 -1.665746
1763 1763 5.135928
1763 1764 -2.114513
1764 2 -2.02867
1764 1491 -0.802472
1764 1762 -0.007205
1764 1763 -2.027087
1764 1764 5.865433
1765 2 -1.327418
1765 1300 -1.216214
1765 1765 6.135936
1765 1766 -3.316106
1765 1767 0.723801
1766 2 -0.164684
1766 1299 -0.045872
1766 1765 -2.889768
1766 1766 7.714877
1766 1767 -3.614554
1767 2 -1.469938
1767 1487 -1.216214
1767 1765 0.29925
1767 1766 -3.334935
1767 1767 6.721836
1768 2 -0.99996
1768 1299 -1.216214
1768 1768 4.896694
1768 1769 -1.786844
1768 1770 0.106323
1769 2 -0.309797
1769 1300 -0.045872
1769 1768 -1.665745
1769 1769 5.135946
1769 1770 -2.114532
1770 2 -1.421655
1770 1491 -1.216214
1770 1768 -0.007206
1770 1769 -2.027099
1770 1770 5.672173
1771 2 -1.327418
1771 1300 -1.216214
1771 1771 6.135936
1771 1772 -3.316106
1771 1773 0.723801
1772 2 -0.164684
1772 1299 -0.045872
1772 1771 -2.889768
1772 1772 7.714877
1772 1773 -3.614554
1773 2 -1.469938
1773 1487 -1.216214
1773 1771 0.29925
1773 1772 -3.334935
1773 1773 6.721836
1774 2 -0.99996
1774 1299 -1.216214
1774 1774 4.896694
1774 1775 -1.786844
1774 1776 0.106323
1775 2 -0.309797
1775 1300 -0.045872
1775 1774 -1.665745
1775 1775 5.135946
1775 1776 -2.114532
1776 2 -1.421655
1776 1491 -1.216214
1776 1774 -0.007206
1776 1775 -2.027099
1776 1776 5.672173
1777 2 -1.327418
1777 1300 -1.216214
1777 1777 6.135936
1777 1778 -3.316106
1777 1779 0.723801
1778 2 -0.164684
1778 1299 -0.045872
1778 1777 -2.889768
1778 1778 7.714877
1778 1779 -3.614554
1779 2 -1.469938
1779 1487 -1.216214
1779 1777 0.29925
1779 1778 -3.334935
1779 1779 6.721836
1780 2 -0.99996
1780 1299 -1.216214
1780 1780 4.896694
1780 1781 -1.786844
1780 1782 0.106323
1781 2 -0.309797
1781 1300 -0.045872
1781 1780 -1.665745
1781 1781 5.135946
1781 1782 -2.114532
1782 2 -1.421655
1782 1491 -1.216214
1782 1780 -0.007206
1782 1781 -2.027099
1782 1782 5.672173
1783 2 -1.327418
1783 1300 -1.216214
1783 1783 6.135936
1783 1784 -3.316106
1783 1785 0.723801
1784 2 -0.164684
1784 1299 -0.045872
1784 1783 -2.889768
1784 1784 7.714877
1784 1785 -3.614554
1785 2 -1.469938
1785 1487 -1.216214
1785 1783 0.29925
1785 1784 -3.334935
1785 1785 6.721836
1786 2 -0.99996
1786 1299 -1.216214
1786 1786 4.896694
1786 1787 -1.786844
1786 1788 0.106323
1787 2 -0.309797
1787 1300 -0.045872
1787 1786 -1.665745
1787 1787 5.135946
1787 1788 -2.114532
1788 2 -1.421655
1788 1491 -1.216214
1788 1786 -0.007206
1788 1787 -2.027099
1788 1788 5.672173
1789 2 -1.327416
1789 1300 -1.216214
1789 1789 6.135986
1789 1790 -3.31613
1789 1791 0.723774
1790 2 -0.164673
1790 1299 -0.045872
1790 1789 -2.889849
1790 1790 7.714915
1790 1791 -3.614521
1791 2 -2.407984
1791 1487 -0.789478
1791 1789 0.299285
1791 1790 -3.334951
1791 1791 7.233127
1792 2 -0.99996
1792 1299 -1.216214
1792 1792 4.896695
1792 1793 -1.786835
1792 1794 0.106314
1793 2 -0.309797
1793 1300 -0.045872
1793 1792 -1.665746
1793 1793 5.135927
1793 1794 -2.114512
1794 2 -2.36594
1794 1491 -0.789478
1794 1792 -0.007205
1794 1793 -2.027086
1794 1794 6.189709
1795 2 -0.705824
1795 1300 -0.608106
1795 1795 3.234787
1795 1796 -1.013865
1795 1797 0.093007
1796 2 -0.144526
1796 1296 -0.091743
1796 1795 -0.914445
1796 1796 3.297054
1796 1797 -1.14634
1797 2 -1.704981
1797 1795 -0.006052
1797 1796 -1.067204
1797 1797 3.778237
1798 2 -0.705824
1798 1300 -0.608106
1798 1798 3.234787
1798 1799 -1.013865
1798 1800 0.093007
1799 2 -0.144526
1799 1296 -0.091743
1799 1798 -0.914445
1799 1799 3.297054
1799 1800 -1.14634
1800 2 -1.704981
1800 1798 -0.006052
1800 1799 -1.067204
1800 1800 3.778237
1801 2 -0.561317
1801 1299 -0.608106
1801 1801 3.057059
1801 1802 -1.316602
1801 1803 0.428966
1802 2 -0.111826
1802 1298 -0.091743
1802 1801 -0.873857
1802 1802 3.970074
1802 1803 -1.892648
1803 2 -1.719502
1803 1801 -0.027604
1803 1802 -1.537753
1803 1803 4.284859
1804 2 -0.561317
1804 1299 -0.608106
1804 1804 3.057059
1804 1805 -1.316602
1804 1806 0.428966
1805 2 -0.111826
1805 1298 -0.091743
1805 1804 -0.873857
1805 1805 3.970074
1805 1806 -1.892648
1806 2 -1.719502
1806 1804 -0.027604
1806 1805 -1.537753
1806 1806 4.284859
1807 2 -2.205021
1807 1393 -2.837837
1807 1807 9.960027
1807 1808 -4.24065
1807 1809 0.323481
1808 2 -0.855118
1808 1300 -0.021413
1808 1807 -3.878293
1808 1808 10.857599
1808 1809 -5.102775
1809 2 -7.037653
1809 1807 -0.020402
1809 1808 -4.837218
1809 1809 12.895273
1810 2 -2.939177
1810 1397 -2.837837
1810 1810 13.147591
1810 1811 -8.354521
1810 1812 1.983944
1811 2 -0.453869
1811 1299 -0.021413
1811 1810 -7.181642
1811 1811 17.837477
1811 1812 -9.180551
1812 2 -7.19639
1812 1810 0.839253
1812 1811 -8.409259
1812 1812 15.766397
1813 2 -2.205021
1813 1393 -2.837837
1813 1813 9.960026
1813 1814 -4.240676
1813 1815 0.323509
1814 2 -0.855117
1814 1300 -0.021413
1814 1813 -3.87829
1814 1814 10.857658
1814 1815 -5.102838
1815 2 -5.944753
1815 1813 -0.020404
1815 1814 -4.837257
1815 1815 11.802414
1816 2 -2.939184
1816 1397 -2.837837
1816 1816 13.147445
1816 1817 -8.354449
1816 1818 1.984025
1817 2 -0.453893
1817 1299 -0.021413
1817 1816 -7.181408
1817 1817 17.837367
1817 1818 -9.180652
1818 2 -6.103979
1818 1816 0.83915
1818 1817 -8.409214
1818 1818 14.674043
1819 2 -2.205021
1819 1393 -2.837837
1819 1819 9.960026
1819 1820 -4.240676
1819 1821 0.323509
1820 2 -0.855117
1820 1300 -0.021413
1820 1819 -3.87829
1820 1820 10.857658
1820 1821 -5.102838
1821 2 -5.944753
1821 1819 -0.020404
1821 1820 -4.837257
1821 1821 11.802414
1822 2 -2.939184
1822 1397 -2.837837
1822 1822 13.147445
1822 1823 -8.354449
1822 1824 1.984025
1823 2 -0.453893
1823 1299 -0.021413
1823 1822 -7.181408
1823 1823 17.837367
1823 1824 -9.180652
1824 2 -6.103979
1824 1822 0.83915
1824 1823 -8.409214
1824 1824 14.674043
1825 2 -2.205021
1825 1393 -2.837837
1825 1825 9.960027
1825 1826 -4.24065
1825 1827 0.323481
1826 2 -0.855118
1826 1300 -0.021413
1826 1825 -3.878293
1826 1826 10.857599
1826 1827 -5.102775
1827 2 -7.037653
1827 1825 -0.020402
1827 1826 -4.837218
1827 1827 12.895273
1828 2 -2.939177
1828 1397 -2.837837
1828 1828 13.147591
1828 1829 -8.354521
1828 1830 1.983944
1829 2 -0.453869
1829 1299 -0.021413
1829 1828 -7.181642
1829 1829 17.837477
1829 1830 -9.180551
1830 2 -7.19639
1830 1828 0.839253
1830 1829 -8.409259
1830 1830 15.766397
1831 2 -3.144407
1831 1419 -3.162165
1831 1831 14.089728
1831 1832 -9.138507
1831 1833 2.355351
1832 2 -0.523623
1832 1393 -0.019231
1832 1831 -7.501614
1832 1832 19.504271
1832 1833 -10.459804
1833 2 -7.981984
1833 1831 0.732543
1833 1832 -9.271671
1833 1833 17.521112
1834 2 -2.390599
1834 1423 -3.162165
1834 1834 10.889208
1834 1835 -4.792846
1834 1836 0.456403
1835 2 -0.943473
1835 1397 -0.019231
1835 1834 -4.290455
1835 1835 12.155582
1835 1836 -5.902424
1836 2 -7.817277
1836 1834 -0.028811
1836 1835 -5.525387
1836 1836 14.371475
1837 2 -3.144416
1837 1419 -3.162165
1837 1837 14.089526
1837 1838 -9.13838
1837 1839 2.355436
1838 2 -0.523657
1838 1393 -0.019231
1838 1837 -7.501304
1838 1838 19.504084
1838 1839 -10.459892
1839 2 -6.774729
1839 1837 0.732419
1839 1838 -9.271598
1839 1839 16.313909
1840 2 -2.390599
1840 1423 -3.162165
1840 1840 10.889208
1840 1841 -4.792845
1840 1842 0.456401
1841 2 -0.943473
1841 1397 -0.019231
1841 1840 -4.290455
1841 1841 12.155579
1841 1842 -5.90242
1842 2 -6.609318
1842 1840 -0.028811
1842 1841 -5.525385
1842 1842 13.163514
1843 2 -3.144416
1843 1419 -3.162165
1843 1843 14.089526
1843 1844 -9.13838
1843 1845 2.355436
1844 2 -0.523657
1844 1393 -0.019231
1844 1843 -7.501304
1844 1844 19.504084
1844 1845 -10.459892
1845 2 -6.774729
1845 1843 0.732419
1845 1844 -9.271598
1845 1845 16.313909
1846 2 -2.390599
1846 1423 -3.162165
1846 1846 10.889208
1846 1847 -4.792845
1846 1848 0.456401
1847 2 -0.943473
1847 1397 -0.019231
1847 1846 -4.290455
1847 1847 12.155579
1847 1848 -5.90242
1848 2 -6.609318
1848 1846 -0.028811
1848 1847 -5.525385
1848 1848 13.163514
1849 2 -3.144416
1849 1419 -3.162165
1849 1849 14.089526
1849 1850 -9.13838
1849 1851 2.355436
1850 2 -0.523657
1850 1393 -0.019231
1850 1849 -7.501304
1850 1850 19.504084
1850 1851 -10.459892
1851 2 -6.774729
1851 1849 0.732419
1851 1850 -9.271598
1851 1851 16.313909
1852 2 -2.390599
1852 1423 -3.162165
1852 1852 10.889208
1852 1853 -4.792845
1852 1854 0.456401
1853 2 -0.943473
1853 1397 -0.019231
1853 1852 -4.290455
1853 1853 12.155579
1853 1854 -5.90242
1854 2 -6.609318
1854 1852 -0.028811
1854 1853 -5.525385
1854 1854 13.163514
1855 2 -3.144416
1855 1419 -3.162165
1855 1855 14.089526
1855 1856 -9.13838
1855 1857 2.355436
1856 2 -0.523657
1856 1393 -0.019231
1856 1855 -7.501304
1856 1856 19.504084
1856 1857 -10.459892
1857 2 -6.774729
1857 1855 0.732419
1857 1856 -9.271598
1857 1857 16.313909
1858 2 -2.390599
1858 1423 -3.162165
1858 1858 10.889208
1858 1859 -4.792845
1858 1860 0.456401
1859 2 -0.943473
1859 1397 -0.019231
1859 1858 -4.290455
1859 1859 12.155579
1859 1860 -5.90242
1860 2 -6.609318
1860 1858 -0.028811
1860 1859 -5.525385
1860 1860 13.163514
1861 2 -3.144416
1861 1419 -3.162165
1861 1861 14.089526
1861 1862 -9.13838
1861 1863 2.355436
1862 2 -0.523657
1862 1393 -0.019231
1862 1861 -7.501304
1862 1862 19.504084
1862 1863 -10.459892
1863 2 -6.774729
1863 1861 0.732419
1863 1862 -9.271598
1863 1863 16.313909
1864 2 -2.390599
1864 1423 -3.162165
1864 1864 10.889208
1864 1865 -4.792845
1864 1866 0.456401
1865 2 -0.943473
1865 1397 -0.019231
1865 1864 -4.290455
1865 1865 12.155579
1865 1866 -5.90242
1866 2 -6.609318
1866 1864 -0.028811
1866 1865 -5.525385
1866 1866 13.163514
1867 2 -3.144416
1867 1419 -3.162165
1867 1867 14.089526
1867 1868 -9.13838
1867 1869 2.355436
1868 2 -0.523657
1868 1393 -0.019231
1868 1867 -7.501304
1868 1868 19.504084
1868 1869 -10.459892
1869 2 -6.774729
1869 1867 0.732419
1869 1868 -9.271598
1869 1869 16.313909
1870 2 -2.390599
1870 1423 -3.162165
1870 1870 10.889208
1870 1871 -4.792845
1870 1872 0.456401
1871 2 -0.943473
1871 1397 -0.019231
1871 1870 -4.290455
1871 1871 12.155579
1871 1872 -5.90242
1872 2 -6.609318
1872 1870 -0.028811
1872 1871 -5.525385
1872 1872 13.163514
1873 2 -3.144416
1873 1419 -3.162165
1873 1873 14.089526
1873 1874 -9.13838
1873 1875 2.355436
1874 2 -0.523657
1874 1393 -0.019231
1874 1873 -7.501304
1874 1874 19.504084
1874 1875 -10.459892
1875 2 -6.774729
1875 1873 0.732419
1875 1874 -9.271598
1875 1875 16.313909
1876 2 -2.390599
1876 1423 -3.162165
1876 1876 10.889208
1876 1877 -4.792845
1876 1878 0.456401
1877 2 -0.943473
1877 1397 -0.019231
1877 1876 -4.290455
1877 1877 12.155579
1877 1878 -5.90242
1878 2 -6.609318
1878 1876 -0.028811
1878 1877 -5.525385
1878 1878 13.163514
1879 2 -3.144416
1879 1419 -3.162165
1879 1879 14.089526
1879 1880 -9.13838
1879 1881 2.355436
1880 2 -0.523657
1880 1393 -0.019231
1880 1879 -7.501304
1880 1880 19.504084
1880 1881 -10.459892
1881 2 -6.774729
1881 1879 0.732419
1881 1880 -9.271598
1881 1881 16.313909
1882 2 -2.390599
1882 1423 -3.162165
1882 1882 10.889208
1882 1883 -4.792845
1882 1884 0.456401
1883 2 -0.943473
1883 1397 -0.019231
1883 1882 -4.290455
1883 1883 12.155579
1883 1884 -5.90242
1884 2 -6.609318
1884 1882 -0.028811
1884 1883 -5.525385
1884 1884 13.163514
1885 2 -3.144416
1885 1419 -3.162165
1885 1885 14.089526
1885 1886 -9.13838
1885 1887 2.355436
1886 2 -0.523657
1886 1393 -0.019231
1886 1885 -7.501304
1886 1886 19.504084
1886 1887 -10.459892
1887 2 -6.774729
1887 1885 0.732419
1887 1886 -9.271598
1887 1887 16.313909
1888 2 -2.390599
1888 1423 -3.162165
1888 1888 10.889208
1888 1889 -4.792845
1888 1890 0.456401
1889 2 -0.943473
1889 1397 -0.019231
1889 1888 -4.290455
1889 1889 12.155579
1889 1890 -5.90242
1890 2 -6.609318
1890 1888 -0.028811
1890 1889 -5.525385
1890 1890 13.163514
1891 2 -5.125891
1891 1419 -2.052634
1891 1891 14.961908
1891 1892 -9.138644
1891 1893 2.35526
1892 2 -0.523632
1892 1393 -0.019231
1892 1891 -7.50198
1892 1892 19.504467
1892 1893 -10.459624
1893 2 -6.774741
1893 1891 0.732682
1893 1892 -9.271742
1893 1893 16.313801
1894 2 -3.94816
1894 1423 -2.052634
1894 1894 11.33724
1894 1895 -4.792843
1894 1896 0.456397
1895 2 -0.943473
1895 1397 -0.019231
1895 1894 -4.290457
1895 1895 12.155572
1895 1896 -5.902411
1896 2 -6.609318
1896 1894 -0.028811
1896 1895 -5.525379
1896 1896 13.163508
1897 1 -1.775256
1897 5 -16.567993
1897 1296 -0.11236
1897 1897 19.455609
1898 1 -1.808065
1898 5 -17.42017
1898 1298 -0.11236
1898 1898 20.340595
1899 1 -1.775256
1899 5 -16.567993
1899 1296 -0.11236
1899 1899 19.455609
1900 1 -1.808065
1900 5 -17.42017
1900 1298 -0.11236
1900 1900 20.340595
1901 1 -1.775256
1901 5 -16.567993
1901 1296 -0.11236
1901 1901 19.455609
1902 1 -1.808065
1902 5 -17.42017
1902 1298 -0.11236
1902 1902 20.340595
1903 1 -1.754079
1903 5 -15.99785
1903 1300 -0.11236
1903 1903 18.864288
1904 1 -1.805733
1904 5 -17.420607
1904 1299 -0.11236
1904 1904 20.338699
1905 1 -1.754079
1905 5 -15.99785
1905 1300 -0.11236
1905 1905 18.864288
1906 1 -1.805733
1906 5 -17.420607
1906 1299 -0.11236
1906 1906 20.338699
1907 1 -1.754079
1907 5 -15.99785
1907 1300 -0.11236
1907 1907 18.864288
1908 1 -1.805733
1908 5 -17.420607
1908 1299 -0.11236
1908 1908 20.338699
1909 1296 -1.020408
1909 1909 2.020408
1909 7568 -1.0
1910 1 -19.606396
1910 1300 -27.7502
1910 1910 48.356596
1911 1 -19.606396
1911 1296 -27.7502
1911 1911 48.356596
1912 1298 -1.020408
1912 1912 2.020408
1912 7567 -1.0
1913 1 -19.606396
1913 1299 -27.7502
1913 1913 48.356596
1914 1 -19.606396
1914 1298 -27.7502
1914 1914 48.356596
1915 34 -4.385965
1915 1915 5.385965
1915 7565 -1.0
1916 30 -4.385965
1916 1916 5.385965
1916 7564 -1.0
1917 1917 5.385965
1917 1918 -4.385965
1917 7563 -1.0
1918 1 -16.8765
1918 2 -9.244
1918 4 -1.0705
1918 5 -2.0275
1918 1917 -4.385965
1918 1918 155.606038
1918 1922 -34.3644
1918 1923 -57.346
1918 2418 -0.091743
1918 2421 -0.091743
1918 2519 -0.11236
1918 2521 -0.11236
1918 2523 -0.11236
1918 2531 -1.020408
1918 2533 -27.7502
1919 1919 5.385965
1919 1920 -4.385965
1919 7566 -1.0
1920 1 -16.882
1920 2 -9.139
1920 4 -1.0705
1920 5 -2.094
1920 1919 -4.385965
1920 1920 155.555538
1920 1921 -34.3639
1920 1924 -57.329
1920 2424 -0.091743
1920 2427 -0.091743
1920 2520 -0.11236
1920 2522 -0.11236
1920 2524 -0.11236
1920 2534 -1.020408
1920 2536 -27.7502
1921 1 -41.117
1921 2 -16.5255
1921 4 -25.0715
1921 5 -2.03
1921 6 -0.315
1921 1920 -34.3639
1921 1921 256.827596
1921 1922 -12.9405
1921 1924 -63.223
1921 1926 -0.045872
1921 1928 -0.789478
1921 1932 -0.045872
1921 1934 -1.216214
1921 1938 -0.045872
1921 1940 -1.216214
1921 1944 -0.045872
1921 1946 -1.216214
1921 1950 -0.045872
1921 1952 -1.216214
1921 1956 -0.045872
1921 1958 -1.216214
1921 1962 -0.045872
1921 1964 -1.216214
1921 1968 -0.045872
1921 1970 -1.216214
1921 1974 -0.045872
1921 1976 -1.216214
1921 1980 -0.045872
1921 1982 -1.216214
1921 1986 -0.045872
1921 1988 -1.216214
1921 1992 -0.045872
1921 1994 -1.216214
1921 1998 -0.045872
1921 2000 -1.216214
1921 2004 -0.045872
1921 2006 -1.216214
1921 2010 -0.045872
1921 2012 -1.216214
1921 2019 -1.522
1921 2109 -0.4245
1921 2113 -2.8285
1921 2382 -0.045872
1921 2384 -1.216214
1921 2388 -0.045872
1921 2390 -1.216214
1921 2394 -0.045872
1921 2396 -1.216214
1921 2400 -0.045872
1921 2402 -1.216214
1921 2406 -0.045872
1921 2408 -1.216214
1921 2412 -0.045872
1921 2414 -1.216214
1921 2423 -0.608106
1921 2426 -0.608106
1921 2433 -0.021413
1921 2439 -0.021413
1921 2445 -0.021413
1921 2451 -0.021413
1921 2526 -0.11236
1921 2528 -0.11236
1921 2530 -0.11236
1921 2535 -27.7502
1921 7561 1.0
1921 7565 1.0
1922 1 -41.1965
1922 2 -16.6505
1922 4 -25.0385
1922 5 -1.968
1922 6 -0.31
1922 1918 -34.3644
1922 1921 -12.9405
1922 1922 256.913596
1922 1923 -63.2005
1922 1925 -0.789478
1922 1929 -0.045872
1922 1931 -1.216214
1922 1935 -0.045872
1922 1937 -1.216214
1922 1941 -0.045872
1922 1943 -1.216214
1922 1947 -0.045872
1922 1949 -1.216214
1922 1953 -0.045872
1922 1955 -1.216214
1922 1959 -0.045872
1922 1961 -1.216214
1922 1965 -0.045872
1922 1967 -1.216214
1922 1971 -0.045872
1922 1973 -1.216214
1922 1977 -0.045872
1922 1979 -1.216214
1922 1983 -0.045872
1922 1985 -1.216214
1922 1989 -0.045872
1922 1991 -1.216214
1922 1995 -0.045872
1922 1997 -1.216214
1922 2001 -0.045872
1922 2003 -1.216214
1922 2007 -0.045872
1922 2009 -1.216214
1922 2013 -0.045872
1922 2015 -1.522
1922 2109 -2.832
1922 2113 -0.4245
1922 2381 -1.216214
1922 2385 -0.045872
1922 2387 -1.216214
1922 2391 -0.045872
1922 2393 -1.216214
1922 2397 -0.045872
1922 2399 -1.216214
1922 2403 -0.045872
1922 2405 -1.216214
1922 2409 -0.045872
1922 2411 -1.216214
1922 2415 -0.045872
1922 2417 -0.608106
1922 2420 -0.608106
1922 2430 -0.021413
1922 2436 -0.021413
1922 2442 -0.021413
1922 2448 -0.021413
1922 2525 -0.11236
1922 2527 -0.11236
1922 2529 -0.11236
1922 2532 -27.7502
1922 7562 1.0
1922 7564 1.0
1923 1 -132.8115
1923 2 -194.2496
1923 4 -52.4615
1923 5 -55.2875
1923 1918 -57.346
1923 1922 -63.2005
1923 1923 557.2816
1923 2041 -0.4625
1923 2045 -0.4625
1924 1 -132.228
1924 2 -197.5526
1924 4 -52.4615
1924 5 -55.5525
1924 1920 -57.329
1924 1921 -63.223
1924 1924 560.4086
1924 2041 -0.531
1924 2045 -0.531
1925 4 -1.922629
1925 1922 -0.789478
1925 1925 5.230003
1925 1926 -2.113728
1925 1927 0.595831
1926 4 -0.438116
1926 1921 -0.045872
1926 1925 -1.516106
1926 1926 6.140696
1926 1927 -3.140602
1927 4 -2.877746
1927 1925 -0.052104
1927 1926 -2.657021
1927 1927 6.586871
1928 4 -2.530098
1928 1921 -0.789478
1928 1928 6.846835
1928 1929 -3.241707
1928 1930 0.714448
1929 4 -0.201854
1929 1922 -0.045872
1929 1928 -2.745439
1929 1929 7.585945
1929 1930 -3.59278
1930 4 -2.981974
1930 1928 0.288092
1930 1929 -3.265703
1930 1930 6.959585
1931 4 -1.171832
1931 1922 -1.216214
1931 1931 4.905943
1931 1932 -2.113728
1931 1933 0.595831
1932 4 -0.438116
1932 1921 -0.045872
1932 1931 -1.516107
1932 1932 6.140695
1932 1933 -3.1406
1933 4 -2.877746
1933 1931 -0.052104
1933 1932 -2.65702
1933 1933 6.58687
1934 4 -1.583069
1934 1921 -1.216214
1934 1934 6.326495
1934 1935 -3.241684
1934 1936 0.714472
1935 4 -0.20186
1935 1922 -0.045872
1935 1934 -2.745369
1935 1935 7.585916
1935 1936 -3.592815
1936 4 -2.98197
1936 1934 0.288057
1936 1935 -3.265689
1936 1936 6.959601
1937 4 -1.171832
1937 1922 -1.216214
1937 1937 4.905943
1937 1938 -2.113728
1937 1939 0.595831
1938 4 -0.438116
1938 1921 -0.045872
1938 1937 -1.516107
1938 1938 6.140695
1938 1939 -3.1406
1939 4 -2.877746
1939 1937 -0.052104
1939 1938 -2.65702
1939 1939 6.58687
1940 4 -1.583069
1940 1921 -1.216214
1940 1940 6.326495
1940 1941 -3.241684
1940 1942 0.714472
1941 4 -0.20186
1941 1922 -0.045872
1941 1940 -2.745369
1941 1941 7.585916
1941 1942 -3.592815
1942 4 -2.98197
1942 1940 0.288057
1942 1941 -3.265689
1942 1942 6.959601
1943 4 -1.171832
1943 1922 -1.216214
1943 1943 4.905943
1943 1944 -2.113728
1943 1945 0.595831
1944 4 -0.438116
1944 1921 -0.045872
1944 1943 -1.516107
1944 1944 6.140695
1944 1945 -3.1406
1945 4 -2.877746
1945 1943 -0.052104
1945 1944 -2.65702
1945 1945 6.58687
1946 4 -1.583069
1946 1921 -1.216214
1946 1946 6.326495
1946 1947 -3.241684
1946 1948 0.714472
1947 4 -0.20186
1947 1922 -0.045872
1947 1946 -2.745369
1947 1947 7.585916
1947 1948 -3.592815
1948 4 -2.98197
1948 1946 0.288057
1948 1947 -3.265689
1948 1948 6.959601
1949 4 -1.171832
1949 1922 -1.216214
1949 1949 4.905943
1949 1950 -2.113728
1949 1951 0.595831
1950 4 -0.438116
1950 1921 -0.045872
1950 1949 -1.516107
1950 1950 6.140695
1950 1951 -3.1406
1951 4 -2.877746
1951 1949 -0.052104
1951 1950 -2.65702
1951 1951 6.58687
1952 4 -1.583069
1952 1921 -1.216214
1952 1952 6.326495
1952 1953 -3.241684
1952 1954 0.714472
1953 4 -0.20186
1953 1922 -0.045872
1953 1952 -2.745369
1953 1953 7.585916
1953 1954 -3.592815
1954 4 -2.98197
1954 1952 0.288057
1954 1953 -3.265689
1954 1954 6.959601
1955 4 -1.171832
1955 1922 -1.216214
1955 1955 4.905943
1955 1956 -2.113728
1955 1957 0.595831
1956 4 -0.438116
1956 1921 -0.045872
1956 1955 -1.516107
1956 1956 6.140695
1956 1957 -3.1406
1957 4 -2.877746
1957 1955 -0.052104
1957 1956 -2.65702
1957 1957 6.58687
1958 4 -1.583069
1958 1921 -1.216214
1958 1958 6.326495
1958 1959 -3.241684
1958 1960 0.714472
1959 4 -0.20186
1959 1922 -0.045872
1959 1958 -2.745369
1959 1959 7.585916
1959 1960 -3.592815
1960 4 -2.98197
1960 1958 0.288057
1960 1959 -3.265689
1960 1960 6.959601
1961 4 -1.171832
1961 1922 -1.216214
1961 1961 4.905943
1961 1962 -2.113728
1961 1963 0.595831
1962 4 -0.438116
1962 1921 -0.045872
1962 1961 -1.516107
1962 1962 6.140695
1962 1963 -3.1406
1963 4 -2.877746
1963 1961 -0.052104
1963 1962 -2.65702
1963 1963 6.58687
1964 4 -1.583069
1964 1921 -1.216214
1964 1964 6.326495
1964 1965 -3.241684
1964 1966 0.714472
1965 4 -0.20186
1965 1922 -0.045872
1965 1964 -2.745369
1965 1965 7.585916
1965 1966 -3.592815
1966 4 -2.98197
1966 1964 0.288057
1966 1965 -3.265689
1966 1966 6.959601
1967 4 -1.171832
1967 1922 -1.216214
1967 1967 4.905943
1967 1968 -2.113728
1967 1969 0.595831
1968 4 -0.438116
1968 1921 -0.045872
1968 1967 -1.516107
1968 1968 6.140695
1968 1969 -3.1406
1969 4 -2.877746
1969 1967 -0.052104
1969 1968 -2.65702
1969 1969 6.58687
1970 4 -1.583069
1970 1921 -1.216214
1970 1970 6.326495
1970 1971 -3.241684
1970 1972 0.714472
1971 4 -0.20186
1971 1922 -0.045872
1971 1970 -2.745369
1971 1971 7.585916
1971 1972 -3.592815
1972 4 -2.98197
1972 1970 0.288057
1972 1971 -3.265689
1972 1972 6.959601
1973 4 -1.171832
1973 1922 -1.216214
1973 1973 4.905943
1973 1974 -2.113728
1973 1975 0.595831
1974 4 -0.438116
1974 1921 -0.045872
1974 1973 -1.516107
1974 1974 6.140695
1974 1975 -3.1406
1975 4 -2.877746
1975 1973 -0.052104
1975 1974 -2.65702
1975 1975 6.58687
1976 4 -1.583069
1976 1921 -1.216214
1976 1976 6.326495
1976 1977 -3.241684
1976 1978 0.714472
1977 4 -0.20186
1977 1922 -0.045872
1977 1976 -2.745369
1977 1977 7.585916
1977 1978 -3.592815
1978 4 -2.98197
1978 1976 0.288057
1978 1977 -3.265689
1978 1978 6.959601
1979 4 -1.171832
1979 1922 -1.216214
1979 1979 4.905943
1979 1980 -2.113728
1979 1981 0.595831
1980 4 -0.438116
1980 1921 -0.045872
1980 1979 -1.516107
1980 1980 6.140695
1980 1981 -3.1406
1981 4 -2.877746
1981 1979 -0.052104
1981 1980 -2.65702
1981 1981 6.58687
1982 4 -1.583069
1982 1921 -1.216214
1982 1982 6.326495
1982 1983 -3.241684
1982 1984 0.714472
1983 4 -0.20186
1983 1922 -0.045872
1983 1982 -2.745369
1983 1983 7.585916
1983 1984 -3.592815
1984 4 -2.98197
1984 1982 0.288057
1984 1983 -3.265689
1984 1984 6.959601
1985 4 -1.171832
1985 1922 -1.216214
1985 1985 4.905943
1985 1986 -2.113728
1985 1987 0.595831
1986 4 -0.438116
1986 1921 -0.045872
1986 1985 -1.516107
1986 1986 6.140695
1986 1987 -3.1406
1987 4 -2.877746
1987 1985 -0.052104
1987 1986 -2.65702
1987 1987 6.58687
1988 4 -1.583069
1988 1921 -1.216214
1988 1988 6.326495
1988 1989 -3.241684
1988 1990 0.714472
1989 4 -0.20186
1989 1922 -0.045872
1989 1988 -2.745369
1989 1989 7.585916
1989 1990 -3.592815
1990 4 -2.98197
1990 1988 0.288057
1990 1989 -3.265689
1990 1990 6.959601
1991 4 -1.171832
1991 1922 -1.216214
1991 1991 4.905943
1991 1992 -2.113728
1991 1993 0.595831
1992 4 -0.438116
1992 1921 -0.045872
1992 1991 -1.516107
1992 1992 6.140695
1992 1993 -3.1406
1993 4 -2.877746
1993 1991 -0.052104
1993 1992 -2.65702
1993 1993 6.58687
1994 4 -1.583069
1994 1921 -1.216214
1994 1994 6.326495
1994 1995 -3.241684
1994 1996 0.714472
1995 4 -0.20186
1995 1922 -0.045872
1995 1994 -2.745369
1995 1995 7.585916
1995 1996 -3.592815
1996 4 -2.98197
1996 1994 0.288057
1996 1995 -3.265689
1996 1996 6.959601
1997 4 -1.171832
1997 1922 -1.216214
1997 1997 4.905943
1997 1998 -2.113728
1997 1999 0.595831
1998 4 -0.438116
1998 1921 -0.045872
1998 1997 -1.516107
1998 1998 6.140695
1998 1999 -3.1406
1999 4 -2.877746
1999 1997 -0.052104
1999 1998 -2.65702
1999 1999 6.58687
2000 4 -1.583069
2000 1921 -1.216214
2000 2000 6.326495
2000 2001 -3.241684
2000 2002 0.714472
2001 4 -0.20186
2001 1922 -0.045872
2001 2000 -2.745369
2001 2001 7.585916
2001 2002 -3.592815
2002 4 -2.98197
2002 2000 0.288057
2002 2001 -3.265689
2002 2002 6.959601
2003 4 -1.171832
2003 1922 -1.216214
2003 2003 4.905943
2003 2004 -2.113728
2003 2005 0.595831
2004 4 -0.438116
2004 1921 -0.045872
2004 2003 -1.516107
2004 2004 6.140695
2004 2005 -3.1406
2005 4 -2.877746
2005 2003 -0.052104
2005 2004 -2.65702
2005 2005 6.58687
2006 4 -1.583069
2006 1921 -1.216214
2006 2006 6.326495
2006 2007 -3.241684
2006 2008 0.714472
2007 4 -0.20186
2007 1922 -0.045872
2007 2006 -2.745369
2007 2007 7.585916
2007 2008 -3.592815
2008 4 -2.98197
2008 2006 0.288057
2008 2007 -3.265689
2008 2008 6.959601
2009 4 -1.171832
2009 1922 -1.216214
2009 2009 4.905943
2009 2010 -2.113722
2009 2011 0.595824
2010 4 -0.438118
2010 1921 -0.045872
2010 2009 -1.516107
2010 2010 6.140684
2010 2011 -3.140587
2011 4 -3.514806
2011 2009 -0.052104
2011 2010 -2.657012
2011 2011 7.223922
2012 4 -1.583071
2012 1921 -1.216214
2012 2012 6.326517
2012 2013 -3.241696
2012 2014 0.714463
2013 4 -0.201854
2013 1922 -0.045872
2013 2012 -2.7454
2013 2013 7.58593
2013 2014 -3.592805
2014 4 -3.618946
2014 2012 0.288072
2014 2013 -3.265696
2014 2014 7.596569
2015 1 -17.2055
2015 2 -19.5265
2015 4 -5.6965
2015 6 -0.0405
2015 1922 -1.522
2015 2015 68.59008
2015 2016 -2.297298
2015 2023 -2.297298
2015 2029 -2.297298
2015 2035 -2.297298
2015 2041 -2.847
2015 2429 -2.837837
2015 2435 -2.837837
2015 2441 -2.837837
2015 2447 -2.837837
2015 2454 -0.019231
2015 2460 -0.019231
2015 2466 -0.019231
2015 2472 -0.019231
2015 2478 -0.019231
2015 2484 -0.019231
2015 2490 -0.019231
2015 2496 -0.019231
2015 2502 -0.019231
2015 2508 -0.019231
2015 2514 -0.019231
2016 4 -2.848317
2016 2015 -2.297298
2016 2016 11.296121
2016 2017 -6.631384
2016 2018 1.480878
2017 2 -0.026455
2017 4 -0.450445
2017 2016 -5.715037
2017 2017 14.393492
2017 2018 -7.201555
2018 4 -6.635775
2018 2016 0.763496
2018 2017 -6.672927
2018 2018 13.545206
2019 1 -17.185
2019 2 -19.5575
2019 4 -5.6545
2019 6 -0.0345
2019 1921 -1.522
2019 2019 68.55008
2019 2020 -2.297298
2019 2026 -2.297298
2019 2032 -2.297298
2019 2038 -2.297298
2019 2045 -2.8445
2019 2432 -2.837837
2019 2438 -2.837837
2019 2444 -2.837837
2019 2450 -2.837837
2019 2457 -0.019231
2019 2463 -0.019231
2019 2469 -0.019231
2019 2475 -0.019231
2019 2481 -0.019231
2019 2487 -0.019231
2019 2493 -0.019231
2019 2499 -0.019231
2019 2505 -0.019231
2019 2511 -0.019231
2019 2517 -0.019231
2020 4 -2.248507
2020 2019 -2.297298
2020 2020 8.943391
2020 2021 -5.376411
2020 2022 1.978825
2021 2 -0.026455
2021 4 -0.626372
2021 2020 -3.519923
2021 2021 12.997455
2021 2022 -7.824704
2022 4 -6.538697
2022 2020 -0.087509
2022 2021 -6.159204
2022 2022 13.78541
2023 4 -2.848313
2023 2015 -2.297298
2023 2023 11.296067
2023 2024 -6.631359
2023 2025 1.480902
2024 2 -0.026455
2024 4 -0.45046
2024 2023 -5.714956
2024 2024 14.393459
2024 2025 -7.201588
2025 4 -5.528661
2025 2023 0.763458
2025 2024 -6.672911
2025 2025 12.438114
2026 4 -2.248518
2026 2019 -2.297298
2026 2026 8.94339
2026 2027 -5.376405
2026 2028 1.978831
2027 2 -0.026455
2027 4 -0.62637
2027 2026 -3.519927
2027 2027 12.997461
2027 2028 -7.824709
2028 4 -5.431789
2028 2026 -0.087505
2028 2027 -6.159202
2028 2028 12.678497
2029 4 -2.848313
2029 2015 -2.297298
2029 2029 11.296067
2029 2030 -6.631359
2029 2031 1.480902
2030 2 -0.026455
2030 4 -0.45046
2030 2029 -5.714956
2030 2030 14.393459
2030 2031 -7.201588
2031 4 -5.528661
2031 2029 0.763458
2031 2030 -6.672911
2031 2031 12.438114
2032 4 -2.248518
2032 2019 -2.297298
2032 2032 8.94339
2032 2033 -5.376405
2032 2034 1.978831
2033 2 -0.026455
2033 4 -0.62637
2033 2032 -3.519927
2033 2033 12.997461
2033 2034 -7.824709
2034 4 -5.431789
2034 2032 -0.087505
2034 2033 -6.159202
2034 2034 12.678497
2035 4 -2.848317
2035 2015 -2.297298
2035 2035 11.296121
2035 2036 -6.631384
2035 2037 1.480878
2036 2 -0.026455
2036 4 -0.450445
2036 2035 -5.715037
2036 2036 14.393492
2036 2037 -7.201555
2037 4 -6.635775
2037 2035 0.763496
2037 2036 -6.672927
2037 2037 13.545206
2038 4 -2.248507
2038 2019 -2.297298
2038 2038 8.943391
2038 2039 -5.376411
2038 2040 1.978825
2039 2 -0.026455
2039 4 -0.626372
2039 2038 -3.519923
2039 2039 12.997455
2039 2040 -7.824704
2040 4 -6.538697
2040 2038 -0.087509
2040 2039 -6.159204
2040 2040 13.78541
2041 1 -20.1005
2041 2 -250.3055
2041 4 -27.4455
2041 5 -0.347
2041 6 -0.454
2041 1923 -0.4625
2041 1924 -0.531
2041 2015 -2.847
2041 2041 368.2527
2041 2042 -1.754386
2041 2045 -2.304
2041 2049 -2.702703
2041 2055 -2.702703
2041 2061 -2.702703
2041 2067 -2.702703
2041 2073 -2.702703
2041 2079 -2.702703
2041 2085 -2.702703
2041 2091 -2.702703
2041 2097 -2.702703
2041 2103 -2.702703
2041 2453 -3.162165
2041 2459 -3.162165
2041 2465 -3.162165
2041 2471 -3.162165
2041 2477 -3.162165
2041 2483 -3.162165
2041 2489 -3.162165
2041 2495 -3.162165
2041 2501 -3.162165
2041 2507 -3.162165
2041 2513 -2.052634
2042 4 -4.399473
2042 2041 -1.754386
2042 2042 11.392572
2042 2043 -6.548151
2042 2044 2.309438
2043 2 -0.022523
2043 4 -0.704711
2043 2042 -4.414964
2043 2043 15.33548
2043 2044 -9.193283
2044 4 -6.369961
2044 2042 -0.024807
2044 2043 -7.310629
2044 2044 14.705398
2045 1 -17.0165
2045 2 -252.185
2045 4 -27.7895
2045 5 -0.347
2045 6 -0.4565
2045 1923 -0.4625
2045 1924 -0.531
2045 2019 -2.8445
2045 2041 -2.304
2045 2045 367.3922
2045 2046 -1.754386
2045 2052 -2.702703
2045 2058 -2.702703
2045 2064 -2.702703
2045 2070 -2.702703
2045 2076 -2.702703
2045 2082 -2.702703
2045 2088 -2.702703
2045 2094 -2.702703
2045 2100 -2.702703
2045 2106 -2.702703
2045 2456 -3.162165
2045 2462 -3.162165
2045 2468 -3.162165
2045 2474 -3.162165
2045 2480 -3.162165
2045 2486 -3.162165
2045 2492 -3.162165
2045 2498 -3.162165
2045 2504 -3.162165
2045 2510 -3.162165
2045 2516 -2.052634
2046 4 -5.373474
2046 2045 -1.754386
2046 2046 14.285651
2046 2047 -7.844301
2046 2048 1.68651
2047 2 -0.022523
2047 4 -0.516791
2047 2046 -6.876477
2047 2047 16.803284
2047 2048 -8.387493
2048 4 -6.479965
2048 2046 0.976895
2048 2047 -7.877453
2048 2048 14.380523
2049 4 -2.732015
2049 2041 -2.702703
2049 2049 10.673153
2049 2050 -6.547908
2049 2051 2.309473
2050 2 -0.022523
2050 4 -0.704741
2050 2049 -4.414647
2050 2050 15.335227
2050 2051 -9.193316
2051 4 -6.369948
2051 2049 -0.024905
2051 2050 -7.310552
2051 2051 14.705405
2052 4 -3.389407
2052 2045 -2.702703
2052 2052 13.249841
2052 2053 -7.844276
2052 2054 1.686546
2053 2 -0.022523
2053 4 -0.516798
2053 2052 -6.876382
2053 2053 16.803252
2053 2054 -8.387549
2054 4 -6.479958
2054 2052 0.976845
2054 2053 -7.877437
2054 2054 14.38055
2055 4 -2.732015
2055 2041 -2.702703
2055 2055 10.673153
2055 2056 -6.547908
2055 2057 2.309473
2056 2 -0.022523
2056 4 -0.704741
2056 2055 -4.414647
2056 2056 15.335227
2056 2057 -9.193316
2057 4 -6.369948
2057 2055 -0.024905
2057 2056 -7.310552
2057 2057 14.705405
2058 4 -3.389407
2058 2045 -2.702703
2058 2058 13.249841
2058 2059 -7.844276
2058 2060 1.686546
2059 2 -0.022523
2059 4 -0.516798
2059 2058 -6.876382
2059 2059 16.803252
2059 2060 -8.387549
2060 4 -6.479958
2060 2058 0.976845
2060 2059 -7.877437
2060 2060 14.38055
2061 4 -2.732015
2061 2041 -2.702703
2061 2061 10.673153
2061 2062 -6.547908
2061 2063 2.309473
2062 2 -0.022523
2062 4 -0.704741
2062 2061 -4.414647
2062 2062 15.335227
2062 2063 -9.193316
2063 4 -6.369948
2063 2061 -0.024905
2063 2062 -7.310552
2063 2063 14.705405
2064 4 -3.389407
2064 2045 -2.702703
2064 2064 13.249841
2064 2065 -7.844276
2064 2066 1.686546
2065 2 -0.022523
2065 4 -0.516798
2065 2064 -6.876382
2065 2065 16.803252
2065 2066 -8.387549
2066 4 -6.479958
2066 2064 0.976845
2066 2065 -7.877437
2066 2066 14.38055
2067 4 -2.732015
2067 2041 -2.702703
2067 2067 10.673153
2067 2068 -6.547908
2067 2069 2.309473
2068 2 -0.022523
2068 4 -0.704741
2068 2067 -4.414647
2068 2068 15.335227
2068 2069 -9.193316
2069 4 -6.369948
2069 2067 -0.024905
2069 2068 -7.310552
2069 2069 14.705405
2070 4 -3.389407
2070 2045 -2.702703
2070 2070 13.249841
2070 2071 -7.844276
2070 2072 1.686546
2071 2 -0.022523
2071 4 -0.516798
2071 2070 -6.876382
2071 2071 16.803252
2071 2072 -8.387549
2072 4 -6.479958
2072 2070 0.976845
2072 2071 -7.877437
2072 2072 14.38055
2073 4 -2.732015
2073 2041 -2.702703
2073 2073 10.673153
2073 2074 -6.547908
2073 2075 2.309473
2074 2 -0.022523
2074 4 -0.704741
2074 2073 -4.414647
2074 2074 15.335227
2074 2075 -9.193316
2075 4 -6.369948
2075 2073 -0.024905
2075 2074 -7.310552
2075 2075 14.705405
2076 4 -3.389407
2076 2045 -2.702703
2076 2076 13.249841
2076 2077 -7.844276
2076 2078 1.686546
2077 2 -0.022523
2077 4 -0.516798
2077 2076 -6.876382
2077 2077 16.803252
2077 2078 -8.387549
2078 4 -6.479958
2078 2076 0.976845
2078 2077 -7.877437
2078 2078 14.38055
2079 4 -2.732015
2079 2041 -2.702703
2079 2079 10.673153
2079 2080 -6.547908
2079 2081 2.309473
2080 2 -0.022523
2080 4 -0.704741
2080 2079 -4.414647
2080 2080 15.335227
2080 2081 -9.193316
2081 4 -6.369948
2081 2079 -0.024905
2081 2080 -7.310552
2081 2081 14.705405
2082 4 -3.389407
2082 2045 -2.702703
2082 2082 13.249841
2082 2083 -7.844276
2082 2084 1.686546
2083 2 -0.022523
2083 4 -0.516798
2083 2082 -6.876382
2083 2083 16.803252
2083 2084 -8.387549
2084 4 -6.479958
2084 2082 0.976845
2084 2083 -7.877437
2084 2084 14.38055
2085 4 -2.732015
2085 2041 -2.702703
2085 2085 10.673153
2085 2086 -6.547908
2085 2087 2.309473
2086 2 -0.022523
2086 4 -0.704741
2086 2085 -4.414647
2086 2086 15.335227
2086 2087 -9.193316
2087 4 -6.369948
2087 2085 -0.024905
2087 2086 -7.310552
2087 2087 14.705405
2088 4 -3.389407
2088 2045 -2.702703
2088 2088 13.249841
2088 2089 -7.844276
2088 2090 1.686546
2089 2 -0.022523
2089 4 -0.516798
2089 2088 -6.876382
2089 2089 16.803252
2089 2090 -8.387549
2090 4 -6.479958
2090 2088 0.976845
2090 2089 -7.877437
2090 2090 14.38055
2091 4 -2.732015
2091 2041 -2.702703
2091 2091 10.673153
2091 2092 -6.547908
2091 2093 2.309473
2092 2 -0.022523
2092 4 -0.704741
2092 2091 -4.414647
2092 2092 15.335227
2092 2093 -9.193316
2093 4 -6.369948
2093 2091 -0.024905
2093 2092 -7.310552
2093 2093 14.705405
2094 4 -3.389407
2094 2045 -2.702703
2094 2094 13.249841
2094 2095 -7.844276
2094 2096 1.686546
2095 2 -0.022523
2095 4 -0.516798
2095 2094 -6.876382
2095 2095 16.803252
2095 2096 -8.387549
2096 4 -6.479958
2096 2094 0.976845
2096 2095 -7.877437
2096 2096 14.38055
2097 4 -2.732015
2097 2041 -2.702703
2097 2097 10.673153
2097 2098 -6.547908
2097 2099 2.309473
2098 2 -0.022523
2098 4 -0.704741
2098 2097 -4.414647
2098 2098 15.335227
2098 2099 -9.193316
2099 4 -6.369948
2099 2097 -0.024905
2099 2098 -7.310552
2099 2099 14.705405
2100 4 -3.389407
2100 2045 -2.702703
2100 2100 13.249841
2100 2101 -7.844276
2100 2102 1.686546
2101 2 -0.022523
2101 4 -0.516798
2101 2100 -6.876382
2101 2101 16.803252
2101 2102 -8.387549
2102 4 -6.479958
2102 2100 0.976845
2102 2101 -7.877437
2102 2102 14.38055
2103 4 -2.732008
2103 2041 -2.702703
2103 2103 10.673183
2103 2104 -6.54794
2103 2105 2.309468
2104 2 -0.022523
2104 4 -0.704737
2104 2103 -4.414677
2104 2104 15.335249
2104 2105 -9.193312
2105 4 -7.653165
2105 2103 -0.024898
2105 2104 -7.310563
2105 2105 15.988626
2106 4 -3.389411
2106 2045 -2.702703
2106 2106 13.249893
2106 2107 -7.844299
2106 2108 1.68652
2107 2 -0.022523
2107 4 -0.516782
2107 2106 -6.876464
2107 2107 16.803281
2107 2108 -8.387513
2108 4 -7.763418
2108 2106 0.976885
2108 2107 -7.877452
2108 2108 15.663985
2109 1 -15.837
2109 2 -74.9745
2109 4 -1.555
2109 6 -11.935
2109 1921 -0.4245
2109 1922 -2.832
2109 2109 296.098563
2109 2110 -4.054065
2109 2113 -0.03
2109 2117 -4.054065
2109 2123 -4.054065
2109 2129 -4.054065
2109 2135 -4.054065
2109 2141 -4.054065
2109 2147 -4.054065
2109 2153 -4.054065
2109 2159 -4.054065
2109 2165 -4.054065
2109 2171 -4.054065
2109 2177 -4.054065
2109 2183 -4.054065
2109 2189 -4.054065
2109 2195 -4.054065
2109 2201 -4.054065
2109 2207 -4.054065
2109 2213 -4.054065
2109 2219 -4.054065
2109 2225 -4.054065
2109 2231 -4.054065
2109 2237 -4.054065
2109 2243 -4.054065
2109 2249 -4.054065
2109 2255 -4.054065
2109 2261 -4.054065
2109 2267 -4.054065
2109 2273 -4.054065
2109 2279 -4.054065
2109 2285 -4.054065
2109 2291 -4.054065
2109 2297 -4.054065
2109 2303 -4.054065
2109 2309 -4.054065
2109 2315 -4.054065
2109 2321 -4.054065
2109 2327 -4.054065
2109 2333 -4.054065
2109 2339 -4.054065
2109 2345 -4.054065
2109 2351 -4.054065
2109 2357 -4.054065
2109 2363 -4.054065
2109 2369 -4.054065
2109 2375 -2.674898
2109 2383 -0.802472
2109 2389 -1.216214
2109 2395 -1.216214
2109 2401 -1.216214
2109 2407 -1.216214
2109 2413 -0.789478
2110 2 -4.545291
2110 2109 -4.054065
2110 2110 18.638238
2110 2111 -11.207487
2110 2112 2.168604
2111 2 -0.551525
2111 6 -0.013755
2111 2110 -10.29721
2111 2111 23.505988
2111 2112 -11.643498
2112 2 -10.147669
2112 2110 1.342217
2112 2111 -11.212585
2112 2112 21.018037
2113 1 -15.7255
2113 2 -75.113
2113 4 -1.5575
2113 6 -11.9355
2113 1921 -2.8285
2113 1922 -0.4245
2113 2109 -0.03
2113 2113 296.125063
2113 2114 -4.054065
2113 2120 -4.054065
2113 2126 -4.054065
2113 2132 -4.054065
2113 2138 -4.054065
2113 2144 -4.054065
2113 2150 -4.054065
2113 2156 -4.054065
2113 2162 -4.054065
2113 2168 -4.054065
2113 2174 -4.054065
2113 2180 -4.054065
2113 2186 -4.054065
2113 2192 -4.054065
2113 2198 -4.054065
2113 2204 -4.054065
2113 2210 -4.054065
2113 2216 -4.054065
2113 2222 -4.054065
2113 2228 -4.054065
2113 2234 -4.054065
2113 2240 -4.054065
2113 2246 -4.054065
2113 2252 -4.054065
2113 2258 -4.054065
2113 2264 -4.054065
2113 2270 -4.054065
2113 2276 -4.054065
2113 2282 -4.054065
2113 2288 -4.054065
2113 2294 -4.054065
2113 2300 -4.054065
2113 2306 -4.054065
2113 2312 -4.054065
2113 2318 -4.054065
2113 2324 -4.054065
2113 2330 -4.054065
2113 2336 -4.054065
2113 2342 -4.054065
2113 2348 -4.054065
2113 2354 -4.054065
2113 2360 -4.054065
2113 2366 -4.054065
2113 2372 -4.054065
2113 2378 -2.674898
2113 2386 -0.802472
2113 2392 -1.216214
2113 2398 -1.216214
2113 2404 -1.216214
2113 2410 -1.216214
2113 2416 -0.789478
2114 2 -4.569929
2114 2113 -4.054065
2114 2114 18.709203
2114 2115 -11.217547
2114 2116 2.132338
2115 2 -0.549769
2115 6 -0.013755
2115 2114 -10.377469
2115 2115 23.520126
2115 2116 -11.579133
2116 2 -10.148618
2116 2114 1.38037
2116 2115 -11.217608
2116 2116 20.985857
2117 2 -4.545291
2117 2109 -4.054065
2117 2117 18.638226
2117 2118 -11.207484
2117 2119 2.168614
2118 2 -0.551526
2118 6 -0.013755
2118 2117 -10.297189
2118 2118 23.505983
2118 2119 -11.643513
2119 2 -8.623379
2119 2117 1.342206
2119 2118 -11.212584
2119 2119 19.493757
2120 2 -4.569929
2120 2113 -4.054065
2120 2120 18.709203
2120 2121 -11.217547
2120 2122 2.132338
2121 2 -0.549769
2121 6 -0.013755
2121 2120 -10.377469
2121 2121 23.520126
2121 2122 -11.579133
2122 2 -8.624305
2122 2120 1.38037
2122 2121 -11.217608
2122 2122 19.461543
2123 2 -4.545291
2123 2109 -4.054065
2123 2123 18.638226
2123 2124 -11.207484
2123 2125 2.168614
2124 2 -0.551526
2124 6 -0.013755
2124 2123 -10.297189
2124 2124 23.505983
2124 2125 -11.643513
2125 2 -8.623379
2125 2123 1.342206
2125 2124 -11.212584
2125 2125 19.493757
2126 2 -4.569929
2126 2113 -4.054065
2126 2126 18.709203
2126 2127 -11.217547
2126 2128 2.132338
2127 2 -0.549769
2127 6 -0.013755
2127 2126 -10.377469
2127 2127 23.520126
2127 2128 -11.579133
2128 2 -8.624305
2128 2126 1.38037
2128 2127 -11.217608
2128 2128 19.461543
2129 2 -4.545291
2129 2109 -4.054065
2129 2129 18.638226
2129 2130 -11.207484
2129 2131 2.168614
2130 2 -0.551526
2130 6 -0.013755
2130 2129 -10.297189
2130 2130 23.505983
2130 2131 -11.643513
2131 2 -8.623379
2131 2129 1.342206
2131 2130 -11.212584
2131 2131 19.493757
2132 2 -4.569929
2132 2113 -4.054065
2132 2132 18.709203
2132 2133 -11.217547
2132 2134 2.132338
2133 2 -0.549769
2133 6 -0.013755
2133 2132 -10.377469
2133 2133 23.520126
2133 2134 -11.579133
2134 2 -8.624305
2134 2132 1.38037
2134 2133 -11.217608
2134 2134 19.461543
2135 2 -4.545291
2135 2109 -4.054065
2135 2135 18.638226
2135 2136 -11.207484
2135 2137 2.168614
2136 2 -0.551526
2136 6 -0.013755
2136 2135 -10.297189
2136 2136 23.505983
2136 2137 -11.643513
2137 2 -8.623379
2137 2135 1.342206
2137 2136 -11.212584
2137 2137 19.493757
2138 2 -4.569929
2138 2113 -4.054065
2138 2138 18.709203
2138 2139 -11.217547
2138 2140 2.132338
2139 2 -0.549769
2139 6 -0.013755
2139 2138 -10.377469
2139 2139 23.520126
2139 2140 -11.579133
2140 2 -8.624305
2140 2138 1.38037
2140 2139 -11.217608
2140 2140 19.461543
2141 2 -4.545291
2141 2109 -4.054065
2141 2141 18.638226
2141 2142 -11.207484
2141 2143 2.168614
2142 2 -0.551526
2142 6 -0.013755
2142 2141 -10.297189
2142 2142 23.505983
2142 2143 -11.643513
2143 2 -8.623379
2143 2141 1.342206
2143 2142 -11.212584
2143 2143 19.493757
2144 2 -4.569929
2144 2113 -4.054065
2144 2144 18.709203
2144 2145 -11.217547
2144 2146 2.132338
2145 2 -0.549769
2145 6 -0.013755
2145 2144 -10.377469
2145 2145 23.520126
2145 2146 -11.579133
2146 2 -8.624305
2146 2144 1.38037
2146 2145 -11.217608
2146 2146 19.461543
2147 2 -4.545291
2147 2109 -4.054065
2147 2147 18.638226
2147 2148 -11.207484
2147 2149 2.168614
2148 2 -0.551526
2148 6 -0.013755
2148 2147 -10.297189
2148 2148 23.505983
2148 2149 -11.643513
2149 2 -8.623379
2149 2147 1.342206
2149 2148 -11.212584
2149 2149 19.493757
2150 2 -4.569929
2150 2113 -4.054065
2150 2150 18.709203
2150 2151 -11.217547
2150 2152 2.132338
2151 2 -0.549769
2151 6 -0.013755
2151 2150 -10.377469
2151 2151 23.520126
2151 2152 -11.579133
2152 2 -8.624305
2152 2150 1.38037
2152 2151 -11.217608
2152 2152 19.461543
2153 2 -4.545291
2153 2109 -4.054065
2153 2153 18.638226
2153 2154 -11.207484
2153 2155 2.168614
2154 2 -0.551526
2154 6 -0.013755
2154 2153 -10.297189
2154 2154 23.505983
2154 2155 -11.643513
2155 2 -8.623379
2155 2153 1.342206
2155 2154 -11.212584
2155 2155 19.493757
2156 2 -4.569929
2156 2113 -4.054065
2156 2156 18.709203
2156 2157 -11.217547
2156 2158 2.132338
2157 2 -0.549769
2157 6 -0.013755
2157 2156 -10.377469
2157 2157 23.520126
2157 2158 -11.579133
2158 2 -8.624305
2158 2156 1.38037
2158 2157 -11.217608
2158 2158 19.461543
2159 2 -4.545291
2159 2109 -4.054065
2159 2159 18.638226
2159 2160 -11.207484
2159 2161 2.168614
2160 2 -0.551526
2160 6 -0.013755
2160 2159 -10.297189
2160 2160 23.505983
2160 2161 -11.643513
2161 2 -8.623379
2161 2159 1.342206
2161 2160 -11.212584
2161 2161 19.493757
2162 2 -4.569929
2162 2113 -4.054065
2162 2162 18.709203
2162 2163 -11.217547
2162 2164 2.132338
2163 2 -0.549769
2163 6 -0.013755
2163 2162 -10.377469
2163 2163 23.520126
2163 2164 -11.579133
2164 2 -8.624305
2164 2162 1.38037
2164 2163 -11.217608
2164 2164 19.461543
2165 2 -4.545291
2165 2109 -4.054065
2165 2165 18.638226
2165 2166 -11.207484
2165 2167 2.168614
2166 2 -0.551526
2166 6 -0.013755
2166 2165 -10.297189
2166 2166 23.505983
2166 2167 -11.643513
2167 2 -8.623379
2167 2165 1.342206
2167 2166 -11.212584
2167 2167 19.493757
2168 2 -4.569929
2168 2113 -4.054065
2168 2168 18.709203
2168 2169 -11.217547
2168 2170 2.132338
2169 2 -0.549769
2169 6 -0.013755
2169 2168 -10.377469
2169 2169 23.520126
2169 2170 -11.579133
2170 2 -8.624305
2170 2168 1.38037
2170 2169 -11.217608
2170 2170 19.461543
2171 2 -4.545291
2171 2109 -4.054065
2171 2171 18.638226
2171 2172 -11.207484
2171 2173 2.168614
2172 2 -0.551526
2172 6 -0.013755
2172 2171 -10.297189
2172 2172 23.505983
2172 2173 -11.643513
2173 2 -8.623379
2173 2171 1.342206
2173 2172 -11.212584
2173 2173 19.493757
2174 2 -4.569929
2174 2113 -4.054065
2174 2174 18.709203
2174 2175 -11.217547
2174 2176 2.132338
2175 2 -0.549769
2175 6 -0.013755
2175 2174 -10.377469
2175 2175 23.520126
2175 2176 -11.579133
2176 2 -8.624305
2176 2174 1.38037
2176 2175 -11.217608
2176 2176 19.461543
2177 2 -4.545291
2177 2109 -4.054065
2177 2177 18.638226
2177 2178 -11.207484
2177 2179 2.168614
2178 2 -0.551526
2178 6 -0.013755
2178 2177 -10.297189
2178 2178 23.505983
2178 2179 -11.643513
2179 2 -8.623379
2179 2177 1.342206
2179 2178 -11.212584
2179 2179 19.493757
2180 2 -4.569929
2180 2113 -4.054065
2180 2180 18.709203
2180 2181 -11.217547
2180 2182 2.132338
2181 2 -0.549769
2181 6 -0.013755
2181 2180 -10.377469
2181 2181 23.520126
2181 2182 -11.579133
2182 2 -8.624305
2182 2180 1.38037
2182 2181 -11.217608
2182 2182 19.461543
2183 2 -4.545291
2183 2109 -4.054065
2183 2183 18.638226
2183 2184 -11.207484
2183 2185 2.168614
2184 2 -0.551526
2184 6 -0.013755
2184 2183 -10.297189
2184 2184 23.505983
2184 2185 -11.643513
2185 2 -8.623379
2185 2183 1.342206
2185 2184 -11.212584
2185 2185 19.493757
2186 2 -4.569929
2186 2113 -4.054065
2186 2186 18.709203
2186 2187 -11.217547
2186 2188 2.132338
2187 2 -0.549769
2187 6 -0.013755
2187 2186 -10.377469
2187 2187 23.520126
2187 2188 -11.579133
2188 2 -8.624305
2188 2186 1.38037
2188 2187 -11.217608
2188 2188 19.461543
2189 2 -4.545291
2189 2109 -4.054065
2189 2189 18.638226
2189 2190 -11.207484
2189 2191 2.168614
2190 2 -0.551526
2190 6 -0.013755
2190 2189 -10.297189
2190 2190 23.505983
2190 2191 -11.643513
2191 2 -8.623379
2191 2189 1.342206
2191 2190 -11.212584
2191 2191 19.493757
2192 2 -4.569929
2192 2113 -4.054065
2192 2192 18.709203
2192 2193 -11.217547
2192 2194 2.132338
2193 2 -0.549769
2193 6 -0.013755
2193 2192 -10.377469
2193 2193 23.520126
2193 2194 -11.579133
2194 2 -8.624305
2194 2192 1.38037
2194 2193 -11.217608
2194 2194 19.461543
2195 2 -4.545291
2195 2109 -4.054065
2195 2195 18.638226
2195 2196 -11.207484
2195 2197 2.168614
2196 2 -0.551526
2196 6 -0.013755
2196 2195 -10.297189
2196 2196 23.505983
2196 2197 -11.643513
2197 2 -8.623379
2197 2195 1.342206
2197 2196 -11.212584
2197 2197 19.493757
2198 2 -4.569929
2198 2113 -4.054065
2198 2198 18.709203
2198 2199 -11.217547
2198 2200 2.132338
2199 2 -0.549769
2199 6 -0.013755
2199 2198 -10.377469
2199 2199 23.520126
2199 2200 -11.579133
2200 2 -8.624305
2200 2198 1.38037
2200 2199 -11.217608
2200 2200 19.461543
2201 2 -4.545291
2201 2109 -4.054065
2201 2201 18.638226
2201 2202 -11.207484
2201 2203 2.168614
2202 2 -0.551526
2202 6 -0.013755
2202 2201 -10.297189
2202 2202 23.505983
2202 2203 -11.643513
2203 2 -8.623379
2203 2201 1.342206
2203 2202 -11.212584
2203 2203 19.493757
2204 2 -4.569929
2204 2113 -4.054065
2204 2204 18.709203
2204 2205 -11.217547
2204 2206 2.132338
2205 2 -0.549769
2205 6 -0.013755
2205 2204 -10.377469
2205 2205 23.520126
2205 2206 -11.579133
2206 2 -8.624305
2206 2204 1.38037
2206 2205 -11.217608
2206 2206 19.461543
2207 2 -4.545291
2207 2109 -4.054065
2207 2207 18.638226
2207 2208 -11.207484
2207 2209 2.168614
2208 2 -0.551526
2208 6 -0.013755
2208 2207 -10.297189
2208 2208 23.505983
2208 2209 -11.643513
2209 2 -8.623379
2209 2207 1.342206
2209 2208 -11.212584
2209 2209 19.493757
2210 2 -4.569929
2210 2113 -4.054065
2210 2210 18.709203
2210 2211 -11.217547
2210 2212 2.132338
2211 2 -0.549769
2211 6 -0.013755
2211 2210 -10.377469
2211 2211 23.520126
2211 2212 -11.579133
2212 2 -8.624305
2212 2210 1.38037
2212 2211 -11.217608
2212 2212 19.461543
2213 2 -4.545291
2213 2109 -4.054065
2213 2213 18.638226
2213 2214 -11.207484
2213 2215 2.168614
2214 2 -0.551526
2214 6 -0.013755
2214 2213 -10.297189
2214 2214 23.505983
2214 2215 -11.643513
2215 2 -8.623379
2215 2213 1.342206
2215 2214 -11.212584
2215 2215 19.493757
2216 2 -4.569929
2216 2113 -4.054065
2216 2216 18.709203
2216 2217 -11.217547
2216 2218 2.132338
2217 2 -0.549769
2217 6 -0.013755
2217 2216 -10.377469
2217 2217 23.520126
2217 2218 -11.579133
2218 2 -8.624305
2218 2216 1.38037
2218 2217 -11.217608
2218 2218 19.461543
2219 2 -4.545291
2219 2109 -4.054065
2219 2219 18.638226
2219 2220 -11.207484
2219 2221 2.168614
2220 2 -0.551526
2220 6 -0.013755
2220 2219 -10.297189
2220 2220 23.505983
2220 2221 -11.643513
2221 2 -8.623379
2221 2219 1.342206
2221 2220 -11.212584
2221 2221 19.493757
2222 2 -4.569929
2222 2113 -4.054065
2222 2222 18.709203
2222 2223 -11.217547
2222 2224 2.132338
2223 2 -0.549769
2223 6 -0.013755
2223 2222 -10.377469
2223 2223 23.520126
2223 2224 -11.579133
2224 2 -8.624305
2224 2222 1.38037
2224 2223 -11.217608
2224 2224 19.461543
2225 2 -4.545291
2225 2109 -4.054065
2225 2225 18.638226
2225 2226 -11.207484
2225 2227 2.168614
2226 2 -0.551526
2226 6 -0.013755
2226 2225 -10.297189
2226 2226 23.505983
2226 2227 -11.643513
2227 2 -8.623379
2227 2225 1.342206
2227 2226 -11.212584
2227 2227 19.493757
2228 2 -4.569929
2228 2113 -4.054065
2228 2228 18.709203
2228 2229 -11.217547
2228 2230 2.132338
2229 2 -0.549769
2229 6 -0.013755
2229 2228 -10.377469
2229 2229 23.520126
2229 2230 -11.579133
2230 2 -8.624305
2230 2228 1.38037
2230 2229 -11.217608
2230 2230 19.461543
2231 2 -4.545291
2231 2109 -4.054065
2231 2231 18.638226
2231 2232 -11.207484
2231 2233 2.168614
2232 2 -0.551526
2232 6 -0.013755
2232 2231 -10.297189
2232 2232 23.505983
2232 2233 -11.643513
2233 2 -8.623379
2233 2231 1.342206
2233 2232 -11.212584
2233 2233 19.493757
2234 2 -4.569929
2234 2113 -4.054065
2234 2234 18.709203
2234 2235 -11.217547
2234 2236 2.132338
2235 2 -0.549769
2235 6 -0.013755
2235 2234 -10.377469
2235 2235 23.520126
2235 2236 -11.579133
2236 2 -8.624305
2236 2234 1.38037
2236 2235 -11.217608
2236 2236 19.461543
2237 2 -4.545291
2237 2109 -4.054065
2237 2237 18.638226
2237 2238 -11.207484
2237 2239 2.168614
2238 2 -0.551526
2238 6 -0.013755
2238 2237 -10.297189
2238 2238 23.505983
2238 2239 -11.643513
2239 2 -8.623379
2239 2237 1.342206
2239 2238 -11.212584
2239 2239 19.493757
2240 2 -4.569929
2240 2113 -4.054065
2240 2240 18.709203
2240 2241 -11.217547
2240 2242 2.132338
2241 2 -0.549769
2241 6 -0.013755
2241 2240 -10.377469
2241 2241 23.520126
2241 2242 -11.579133
2242 2 -8.624305
2242 2240 1.38037
2242 2241 -11.217608
2242 2242 19.461543
2243 2 -4.545291
2243 2109 -4.054065
2243 2243 18.638226
2243 2244 -11.207484
2243 2245 2.168614
2244 2 -0.551526
2244 6 -0.013755
2244 2243 -10.297189
2244 2244 23.505983
2244 2245 -11.643513
2245 2 -8.623379
2245 2243 1.342206
2245 2244 -11.212584
2245 2245 19.493757
2246 2 -4.569929
2246 2113 -4.054065
2246 2246 18.709203
2246 2247 -11.217547
2246 2248 2.132338
2247 2 -0.549769
2247 6 -0.013755
2247 2246 -10.377469
2247 2247 23.520126
2247 2248 -11.579133
2248 2 -8.624305
2248 2246 1.38037
2248 2247 -11.217608
2248 2248 19.461543
2249 2 -4.545291
2249 2109 -4.054065
2249 2249 18.638226
2249 2250 -11.207484
2249 2251 2.168614
2250 2 -0.551526
2250 6 -0.013755
2250 2249 -10.297189
2250 2250 23.505983
2250 2251 -11.643513
2251 2 -8.623379
2251 2249 1.342206
2251 2250 -11.212584
2251 2251 19.493757
2252 2 -4.569929
2252 2113 -4.054065
2252 2252 18.709203
2252 2253 -11.217547
2252 2254 2.132338
2253 2 -0.549769
2253 6 -0.013755
2253 2252 -10.377469
2253 2253 23.520126
2253 2254 -11.579133
2254 2 -8.624305
2254 2252 1.38037
2254 2253 -11.217608
2254 2254 19.461543
2255 2 -4.545291
2255 2109 -4.054065
2255 2255 18.638226
2255 2256 -11.207484
2255 2257 2.168614
2256 2 -0.551526
2256 6 -0.013755
2256 2255 -10.297189
2256 2256 23.505983
2256 2257 -11.643513
2257 2 -8.623379
2257 2255 1.342206
2257 2256 -11.212584
2257 2257 19.493757
2258 2 -4.569929
2258 2113 -4.054065
2258 2258 18.709203
2258 2259 -11.217547
2258 2260 2.132338
2259 2 -0.549769
2259 6 -0.013755
2259 2258 -10.377469
2259 2259 23.520126
2259 2260 -11.579133
2260 2 -8.624305
2260 2258 1.38037
2260 2259 -11.217608
2260 2260 19.461543
2261 2 -4.545291
2261 2109 -4.054065
2261 2261 18.638226
2261 2262 -11.207484
2261 2263 2.168614
2262 2 -0.551526
2262 6 -0.013755
2262 2261 -10.297189
2262 2262 23.505983
2262 2263 -11.643513
2263 2 -8.623379
2263 2261 1.342206
2263 2262 -11.212584
2263 2263 19.493757
2264 2 -4.569929
2264 2113 -4.054065
2264 2264 18.709203
2264 2265 -11.217547
2264 2266 2.132338
2265 2 -0.549769
2265 6 -0.013755
2265 2264 -10.377469
2265 2265 23.520126
2265 2266 -11.579133
2266 2 -8.624305
2266 2264 1.38037
2266 2265 -11.217608
2266 2266 19.461543
2267 2 -4.545291
2267 2109 -4.054065
2267 2267 18.638226
2267 2268 -11.207484
2267 2269 2.168614
2268 2 -0.551526
2268 6 -0.013755
2268 2267 -10.297189
2268 2268 23.505983
2268 2269 -11.643513
2269 2 -8.623379
2269 2267 1.342206
2269 2268 -11.212584
2269 2269 19.493757
2270 2 -4.569929
2270 2113 -4.054065
2270 2270 18.709203
2270 2271 -11.217547
2270 2272 2.132338
2271 2 -0.549769
2271 6 -0.013755
2271 2270 -10.377469
2271 2271 23.520126
2271 2272 -11.579133
2272 2 -8.624305
2272 2270 1.38037
2272 2271 -11.217608
2272 2272 19.461543
2273 2 -4.545291
2273 2109 -4.054065
2273 2273 18.638226
2273 2274 -11.207484
2273 2275 2.168614
2274 2 -0.551526
2274 6 -0.013755
2274 2273 -10.297189
2274 2274 23.505983
2274 2275 -11.643513
2275 2 -8.623379
2275 2273 1.342206
2275 2274 -11.212584
2275 2275 19.493757
2276 2 -4.569929
2276 2113 -4.054065
2276 2276 18.709203
2276 2277 -11.217547
2276 2278 2.132338
2277 2 -0.549769
2277 6 -0.013755
2277 2276 -10.377469
2277 2277 23.520126
2277 2278 -11.579133
2278 2 -8.624305
2278 2276 1.38037
2278 2277 -11.217608
2278 2278 19.461543
2279 2 -4.545291
2279 2109 -4.054065
2279 2279 18.638226
2279 2280 -11.207484
2279 2281 2.168614
2280 2 -0.551526
2280 6 -0.013755
2280 2279 -10.297189
2280 2280 23.505983
2280 2281 -11.643513
2281 2 -8.623379
2281 2279 1.342206
2281 2280 -11.212584
2281 2281 19.493757
2282 2 -4.569929
2282 2113 -4.054065
2282 2282 18.709203
2282 2283 -11.217547
2282 2284 2.132338
2283 2 -0.549769
2283 6 -0.013755
2283 2282 -10.377469
2283 2283 23.520126
2283 2284 -11.579133
2284 2 -8.624305
2284 2282 1.38037
2284 2283 -11.217608
2284 2284 19.461543
2285 2 -4.545291
2285 2109 -4.054065
2285 2285 18.638226
2285 2286 -11.207484
2285 2287 2.168614
2286 2 -0.551526
2286 6 -0.013755
2286 2285 -10.297189
2286 2286 23.505983
2286 2287 -11.643513
2287 2 -8.623379
2287 2285 1.342206
2287 2286 -11.212584
2287 2287 19.493757
2288 2 -4.569929
2288 2113 -4.054065
2288 2288 18.709203
2288 2289 -11.217547
2288 2290 2.132338
2289 2 -0.549769
2289 6 -0.013755
2289 2288 -10.377469
2289 2289 23.520126
2289 2290 -11.579133
2290 2 -8.624305
2290 2288 1.38037
2290 2289 -11.217608
2290 2290 19.461543
2291 2 -4.545291
2291 2109 -4.054065
2291 2291 18.638226
2291 2292 -11.207484
2291 2293 2.168614
2292 2 -0.551526
2292 6 -0.013755
2292 2291 -10.297189
2292 2292 23.505983
2292 2293 -11.643513
2293 2 -8.623379
2293 2291 1.342206
2293 2292 -11.212584
2293 2293 19.493757
2294 2 -4.569929
2294 2113 -4.054065
2294 2294 18.709203
2294 2295 -11.217547
2294 2296 2.132338
2295 2 -0.549769
2295 6 -0.013755
2295 2294 -10.377469
2295 2295 23.520126
2295 2296 -11.579133
2296 2 -8.624305
2296 2294 1.38037
2296 2295 -11.217608
2296 2296 19.461543
2297 2 -4.545291
2297 2109 -4.054065
2297 2297 18.638226
2297 2298 -11.207484
2297 2299 2.168614
2298 2 -0.551526
2298 6 -0.013755
2298 2297 -10.297189
2298 2298 23.505983
2298 2299 -11.643513
2299 2 -8.623379
2299 2297 1.342206
2299 2298 -11.212584
2299 2299 19.493757
2300 2 -4.569929
2300 2113 -4.054065
2300 2300 18.709203
2300 2301 -11.217547
2300 2302 2.132338
2301 2 -0.549769
2301 6 -0.013755
2301 2300 -10.377469
2301 2301 23.520126
2301 2302 -11.579133
2302 2 -8.624305
2302 2300 1.38037
2302 2301 -11.217608
2302 2302 19.461543
2303 2 -4.545291
2303 2109 -4.054065
2303 2303 18.638226
2303 2304 -11.207484
2303 2305 2.168614
2304 2 -0.551526
2304 6 -0.013755
2304 2303 -10.297189
2304 2304 23.505983
2304 2305 -11.643513
2305 2 -8.623379
2305 2303 1.342206
2305 2304 -11.212584
2305 2305 19.493757
2306 2 -4.569929
2306 2113 -4.054065
2306 2306 18.709203
2306 2307 -11.217547
2306 2308 2.132338
2307 2 -0.549769
2307 6 -0.013755
2307 2306 -10.377469
2307 2307 23.520126
2307 2308 -11.579133
2308 2 -8.624305
2308 2306 1.38037
2308 2307 -11.217608
2308 2308 19.461543
2309 2 -4.545291
2309 2109 -4.054065
2309 2309 18.638226
2309 2310 -11.207484
2309 2311 2.168614
2310 2 -0.551526
2310 6 -0.013755
2310 2309 -10.297189
2310 2310 23.505983
2310 2311 -11.643513
2311 2 -8.623379
2311 2309 1.342206
2311 2310 -11.212584
2311 2311 19.493757
2312 2 -4.569929
2312 2113 -4.054065
2312 2312 18.709203
2312 2313 -11.217547
2312 2314 2.132338
2313 2 -0.549769
2313 6 -0.013755
2313 2312 -10.377469
2313 2313 23.520126
2313 2314 -11.579133
2314 2 -8.624305
2314 2312 1.38037
2314 2313 -11.217608
2314 2314 19.461543
2315 2 -4.545291
2315 2109 -4.054065
2315 2315 18.638226
2315 2316 -11.207484
2315 2317 2.168614
2316 2 -0.551526
2316 6 -0.013755
2316 2315 -10.297189
2316 2316 23.505983
2316 2317 -11.643513
2317 2 -8.623379
2317 2315 1.342206
2317 2316 -11.212584
2317 2317 19.493757
2318 2 -4.569929
2318 2113 -4.054065
2318 2318 18.709203
2318 2319 -11.217547
2318 2320 2.132338
2319 2 -0.549769
2319 6 -0.013755
2319 2318 -10.377469
2319 2319 23.520126
2319 2320 -11.579133
2320 2 -8.624305
2320 2318 1.38037
2320 2319 -11.217608
2320 2320 19.461543
2321 2 -4.545291
2321 2109 -4.054065
2321 2321 18.638226
2321 2322 -11.207484
2321 2323 2.168614
2322 2 -0.551526
2322 6 -0.013755
2322 2321 -10.297189
2322 2322 23.505983
2322 2323 -11.643513
2323 2 -8.623379
2323 2321 1.342206
2323 2322 -11.212584
2323 2323 19.493757
2324 2 -4.569929
2324 2113 -4.054065
2324 2324 18.709203
2324 2325 -11.217547
2324 2326 2.132338
2325 2 -0.549769
2325 6 -0.013755
2325 2324 -10.377469
2325 2325 23.520126
2325 2326 -11.579133
2326 2 -8.624305
2326 2324 1.38037
2326 2325 -11.217608
2326 2326 19.461543
2327 2 -4.545291
2327 2109 -4.054065
2327 2327 18.638226
2327 2328 -11.207484
2327 2329 2.168614
2328 2 -0.551526
2328 6 -0.013755
2328 2327 -10.297189
2328 2328 23.505983
2328 2329 -11.643513
2329 2 -8.623379
2329 2327 1.342206
2329 2328 -11.212584
2329 2329 19.493757
2330 2 -4.569929
2330 2113 -4.054065
2330 2330 18.709203
2330 2331 -11.217547
2330 2332 2.132338
2331 2 -0.549769
2331 6 -0.013755
2331 2330 -10.377469
2331 2331 23.520126
2331 2332 -11.579133
2332 2 -8.624305
2332 2330 1.38037
2332 2331 -11.217608
2332 2332 19.461543
2333 2 -4.545291
2333 2109 -4.054065
2333 2333 18.638226
2333 2334 -11.207484
2333 2335 2.168614
2334 2 -0.551526
2334 6 -0.013755
2334 2333 -10.297189
2334 2334 23.505983
2334 2335 -11.643513
2335 2 -8.623379
2335 2333 1.342206
2335 2334 -11.212584
2335 2335 19.493757
2336 2 -4.569929
2336 2113 -4.054065
2336 2336 18.709203
2336 2337 -11.217547
2336 2338 2.132338
2337 2 -0.549769
2337 6 -0.013755
2337 2336 -10.377469
2337 2337 23.520126
2337 2338 -11.579133
2338 2 -8.624305
2338 2336 1.38037
2338 2337 -11.217608
2338 2338 19.461543
2339 2 -4.545291
2339 2109 -4.054065
2339 2339 18.638226
2339 2340 -11.207484
2339 2341 2.168614
2340 2 -0.551526
2340 6 -0.013755
2340 2339 -10.297189
2340 2340 23.505983
2340 2341 -11.643513
2341 2 -8.623379
2341 2339 1.342206
2341 2340 -11.212584
2341 2341 19.493757
2342 2 -4.569929
2342 2113 -4.054065
2342 2342 18.709203
2342 2343 -11.217547
2342 2344 2.132338
2343 2 -0.549769
2343 6 -0.013755
2343 2342 -10.377469
2343 2343 23.520126
2343 2344 -11.579133
2344 2 -8.624305
2344 2342 1.38037
2344 2343 -11.217608
2344 2344 19.461543
2345 2 -4.545291
2345 2109 -4.054065
2345 2345 18.638226
2345 2346 -11.207484
2345 2347 2.168614
2346 2 -0.551526
2346 6 -0.013755
2346 2345 -10.297189
2346 2346 23.505983
2346 2347 -11.643513
2347 2 -8.623379
2347 2345 1.342206
2347 2346 -11.212584
2347 2347 19.493757
2348 2 -4.569929
2348 2113 -4.054065
2348 2348 18.709203
2348 2349 -11.217547
2348 2350 2.132338
2349 2 -0.549769
2349 6 -0.013755
2349 2348 -10.377469
2349 2349 23.520126
2349 2350 -11.579133
2350 2 -8.624305
2350 2348 1.38037
2350 2349 -11.217608
2350 2350 19.461543
2351 2 -4.545291
2351 2109 -4.054065
2351 2351 18.638226
2351 2352 -11.207484
2351 2353 2.168614
2352 2 -0.551526
2352 6 -0.013755
2352 2351 -10.297189
2352 2352 23.505983
2352 2353 -11.643513
2353 2 -8.623379
2353 2351 1.342206
2353 2352 -11.212584
2353 2353 19.493757
2354 2 -4.569929
2354 2113 -4.054065
2354 2354 18.709203
2354 2355 -11.217547
2354 2356 2.132338
2355 2 -0.549769
2355 6 -0.013755
2355 2354 -10.377469
2355 2355 23.520126
2355 2356 -11.579133
2356 2 -8.624305
2356 2354 1.38037
2356 2355 -11.217608
2356 2356 19.461543
2357 2 -4.545291
2357 2109 -4.054065
2357 2357 18.638226
2357 2358 -11.207484
2357 2359 2.168614
2358 2 -0.551526
2358 6 -0.013755
2358 2357 -10.297189
2358 2358 23.505983
2358 2359 -11.643513
2359 2 -8.623379
2359 2357 1.342206
2359 2358 -11.212584
2359 2359 19.493757
2360 2 -4.569929
2360 2113 -4.054065
2360 2360 18.709203
2360 2361 -11.217547
2360 2362 2.132338
2361 2 -0.549769
2361 6 -0.013755
2361 2360 -10.377469
2361 2361 23.520126
2361 2362 -11.579133
2362 2 -8.624305
2362 2360 1.38037
2362 2361 -11.217608
2362 2362 19.461543
2363 2 -4.545291
2363 2109 -4.054065
2363 2363 18.638226
2363 2364 -11.207484
2363 2365 2.168614
2364 2 -0.551526
2364 6 -0.013755
2364 2363 -10.297189
2364 2364 23.505983
2364 2365 -11.643513
2365 2 -8.623379
2365 2363 1.342206
2365 2364 -11.212584
2365 2365 19.493757
2366 2 -4.569929
2366 2113 -4.054065
2366 2366 18.709203
2366 2367 -11.217547
2366 2368 2.132338
2367 2 -0.549769
2367 6 -0.013755
2367 2366 -10.377469
2367 2367 23.520126
2367 2368 -11.579133
2368 2 -8.624305
2368 2366 1.38037
2368 2367 -11.217608
2368 2368 19.461543
2369 2 -4.545291
2369 2109 -4.054065
2369 2369 18.638226
2369 2370 -11.207484
2369 2371 2.168614
2370 2 -0.551526
2370 6 -0.013755
2370 2369 -10.297189
2370 2370 23.505983
2370 2371 -11.643513
2371 2 -8.623379
2371 2369 1.342206
2371 2370 -11.212584
2371 2371 19.493757
2372 2 -4.569929
2372 2113 -4.054065
2372 2372 18.709203
2372 2373 -11.217547
2372 2374 2.132338
2373 2 -0.549769
2373 6 -0.013755
2373 2372 -10.377469
2373 2373 23.520126
2373 2374 -11.579133
2374 2 -8.624305
2374 2372 1.38037
2374 2373 -11.217608
2374 2374 19.461543
2375 2 -6.928099
2375 2109 -2.674898
2375 2375 19.641883
2375 2376 -11.207487
2375 2377 2.168602
2376 2 -0.551525
2376 6 -0.013755
2376 2375 -10.297215
2376 2376 23.505988
2376 2377 -11.643493
2377 2 -8.623379
2377 2375 1.342219
2377 2376 -11.212586
2377 2377 19.493746
2378 2 -6.965979
2378 2113 -2.674898
2378 2378 19.726086
2378 2379 -11.217547
2378 2380 2.132338
2379 2 -0.549769
2379 6 -0.013755
2379 2378 -10.377469
2379 2379 23.520126
2379 2380 -11.579133
2380 2 -8.624305
2380 2378 1.38037
2380 2379 -11.217608
2380 2380 19.461543
2381 2 -1.352504
2381 1922 -1.216214
2381 2381 6.208312
2381 2382 -3.336057
2381 2383 0.696463
2382 2 -0.161692
2382 1921 -0.045872
2382 2381 -2.967539
2382 2382 7.745151
2382 2383 -3.570048
2383 2 -2.075676
2383 2109 -0.802472
2383 2381 0.332473
2383 2382 -3.34732
2383 2383 6.892995
2384 2 -0.992008
2384 1921 -1.216214
2384 2384 4.887978
2384 2385 -1.716572
2384 2386 0.036816
2385 2 -0.32356
2385 1922 -0.045872
2385 2384 -1.66645
2385 2385 4.99161
2385 2386 -1.955729
2386 2 -2.025685
2386 2113 -0.802472
2386 2384 -0.002498
2386 2385 -1.927573
2386 2386 5.758227
2387 2 -1.352506
2387 1922 -1.216214
2387 2387 6.20827
2387 2388 -3.33604
2387 2389 0.69649
2388 2 -0.161701
2388 1921 -0.045872
2388 2387 -2.96747
2388 2388 7.745124
2388 2389 -3.570082
2389 2 -1.471858
2389 2109 -1.216214
2389 2387 0.332442
2389 2388 -3.347309
2389 2389 6.702939
2390 2 -0.992008
2390 1921 -1.216214
2390 2390 4.887978
2390 2391 -1.716573
2390 2392 0.036818
2391 2 -0.32356
2391 1922 -0.045872
2391 2390 -1.666449
2391 2391 4.991613
2391 2392 -1.955732
2392 2 -1.418621
2392 2113 -1.216214
2392 2390 -0.002498
2392 2391 -1.927575
2392 2392 5.564908
2393 2 -1.352506
2393 1922 -1.216214
2393 2393 6.20827
2393 2394 -3.33604
2393 2395 0.69649
2394 2 -0.161701
2394 1921 -0.045872
2394 2393 -2.96747
2394 2394 7.745124
2394 2395 -3.570082
2395 2 -1.471858
2395 2109 -1.216214
2395 2393 0.332442
2395 2394 -3.347309
2395 2395 6.702939
2396 2 -0.992008
2396 1921 -1.216214
2396 2396 4.887978
2396 2397 -1.716573
2396 2398 0.036818
2397 2 -0.32356
2397 1922 -0.045872
2397 2396 -1.666449
2397 2397 4.991613
2397 2398 -1.955732
2398 2 -1.418621
2398 2113 -1.216214
2398 2396 -0.002498
2398 2397 -1.927575
2398 2398 5.564908
2399 2 -1.352506
2399 1922 -1.216214
2399 2399 6.20827
2399 2400 -3.33604
2399 2401 0.69649
2400 2 -0.161701
2400 1921 -0.045872
2400 2399 -2.96747
2400 2400 7.745124
2400 2401 -3.570082
2401 2 -1.471858
2401 2109 -1.216214
2401 2399 0.332442
2401 2400 -3.347309
2401 2401 6.702939
2402 2 -0.992008
2402 1921 -1.216214
2402 2402 4.887978
2402 2403 -1.716573
2402 2404 0.036818
2403 2 -0.32356
2403 1922 -0.045872
2403 2402 -1.666449
2403 2403 4.991613
2403 2404 -1.955732
2404 2 -1.418621
2404 2113 -1.216214
2404 2402 -0.002498
2404 2403 -1.927575
2404 2404 5.564908
2405 2 -1.352506
2405 1922 -1.216214
2405 2405 6.20827
2405 2406 -3.33604
2405 2407 0.69649
2406 2 -0.161701
2406 1921 -0.045872
2406 2405 -2.96747
2406 2406 7.745124
2406 2407 -3.570082
2407 2 -1.471858
2407 2109 -1.216214
2407 2405 0.332442
2407 2406 -3.347309
2407 2407 6.702939
2408 2 -0.992008
2408 1921 -1.216214
2408 2408 4.887978
2408 2409 -1.716573
2408 2410 0.036818
2409 2 -0.32356
2409 1922 -0.045872
2409 2408 -1.666449
2409 2409 4.991613
2409 2410 -1.955732
2410 2 -1.418621
2410 2113 -1.216214
2410 2408 -0.002498
2410 2409 -1.927575
2410 2410 5.564908
2411 2 -1.352504
2411 1922 -1.216214
2411 2411 6.208314
2411 2412 -3.336058
2411 2413 0.696462
2412 2 -0.161692
2412 1921 -0.045872
2412 2411 -2.967543
2412 2412 7.745152
2412 2413 -3.570046
2413 2 -2.410384
2413 2109 -0.789478
2413 2411 0.332475
2413 2412 -3.347321
2413 2413 7.214708
2414 2 -0.992008
2414 1921 -1.216214
2414 2414 4.887978
2414 2415 -1.716572
2414 2416 0.036816
2415 2 -0.32356
2415 1922 -0.045872
2415 2414 -1.66645
2415 2415 4.99161
2415 2416 -1.955729
2416 2 -2.362994
2416 2113 -0.789478
2416 2414 -0.002498
2416 2415 -1.927572
2416 2416 6.082542
2417 2 -0.715896
2417 1922 -0.608106
2417 2417 3.249034
2417 2418 -0.942168
2417 2419 0.017136
2418 2 -0.158959
2418 1918 -0.091743
2418 2417 -0.91892
2418 2418 3.14677
2418 2419 -0.977148
2419 2 -1.69982
2419 2417 -0.0011
2419 2418 -0.962598
2419 2419 3.663518
2420 2 -0.715896
2420 1922 -0.608106
2420 2420 3.249034
2420 2421 -0.942168
2420 2422 0.017136
2421 2 -0.158959
2421 1918 -0.091743
2421 2420 -0.91892
2421 2421 3.14677
2421 2422 -0.977148
2422 2 -1.69982
2422 2420 -0.0011
2422 2421 -0.962598
2422 2422 3.663518
2423 2 -0.557926
2423 1921 -0.608106
2423 2423 3.05803
2423 2424 -1.321027
2423 2425 0.429029
2424 2 -0.111924
2424 1920 -0.091743
2424 2423 -0.878398
2424 2424 3.974428
2424 2425 -1.892363
2425 2 -1.719314
2425 2423 -0.027318
2425 2424 -1.538112
2425 2425 4.284744
2426 2 -0.557926
2426 1921 -0.608106
2426 2426 3.05803
2426 2427 -1.321027
2426 2428 0.429029
2427 2 -0.111924
2427 1920 -0.091743
2427 2426 -0.878398
2427 2427 3.974428
2427 2428 -1.892363
2428 2 -1.719314
2428 2426 -0.027318
2428 2427 -1.538112
2428 2428 4.284744
2429 2 -2.215833
2429 2015 -2.837837
2429 2429 9.984001
2429 2430 -4.032553
2429 2431 0.102223
2430 2 -0.89437
2430 1922 -0.021413
2430 2429 -3.896015
2430 2430 10.410101
2430 2431 -4.598303
2431 2 -7.028349
2431 2429 -0.006462
2431 2430 -4.521373
2431 2431 12.556185
2432 2 -2.894128
2432 2019 -2.837837
2432 2432 13.026556
2432 2433 -8.316261
2432 2434 2.02167
2433 2 -0.458357
2433 1921 -0.021413
2433 2432 -7.056819
2433 2433 17.778504
2433 2434 -9.241915
2434 2 -7.193534
2434 2432 0.786073
2434 2433 -8.385808
2434 2434 15.79327
2435 2 -2.215833
2435 2015 -2.837837
2435 2435 9.984001
2435 2436 -4.032557
2435 2437 0.102227
2436 2 -0.894369
2436 1922 -0.021413
2436 2435 -3.896015
2436 2436 10.41011
2436 2437 -4.598313
2437 2 -5.935438
2437 2435 -0.006463
2437 2436 -4.52138
2437 2437 11.46328
2438 2 -2.894136
2438 2019 -2.837837
2438 2438 13.026392
2438 2439 -8.316173
2438 2440 2.021755
2439 2 -0.458385
2439 1921 -0.021413
2439 2438 -7.056559
2439 2439 17.778372
2439 2440 -9.242015
2440 2 -6.101204
2440 2438 0.785962
2440 2439 -8.385754
2440 2440 14.700997
2441 2 -2.215833
2441 2015 -2.837837
2441 2441 9.984001
2441 2442 -4.032557
2441 2443 0.102227
2442 2 -0.894369
2442 1922 -0.021413
2442 2441 -3.896015
2442 2442 10.41011
2442 2443 -4.598313
2443 2 -5.935438
2443 2441 -0.006463
2443 2442 -4.52138
2443 2443 11.46328
2444 2 -2.894136
2444 2019 -2.837837
2444 2444 13.026392
2444 2445 -8.316173
2444 2446 2.021755
2445 2 -0.458385
2445 1921 -0.021413
2445 2444 -7.056559
2445 2445 17.778372
2445 2446 -9.242015
2446 2 -6.101204
2446 2444 0.785962
2446 2445 -8.385754
2446 2446 14.700997
2447 2 -2.215833
2447 2015 -2.837837
2447 2447 9.984001
2447 2448 -4.032553
2447 2449 0.102223
2448 2 -0.89437
2448 1922 -0.021413
2448 2447 -3.896015
2448 2448 10.410101
2448 2449 -4.598303
2449 2 -7.028349
2449 2447 -0.006462
2449 2448 -4.521373
2449 2449 12.556185
2450 2 -2.894128
2450 2019 -2.837837
2450 2450 13.026556
2450 2451 -8.316261
2450 2452 2.02167
2451 2 -0.458357
2451 1921 -0.021413
2451 2450 -7.056819
2451 2451 17.778504
2451 2452 -9.241915
2452 2 -7.193534
2452 2450 0.786073
2452 2451 -8.385808
2452 2452 15.79327
2453 2 -3.011133
2453 2041 -3.162165
2453 2453 13.329042
2453 2454 -8.706801
2453 2455 2.551058
2454 2 -0.557499
2454 2015 -0.019231
2454 2453 -6.578376
2454 2454 18.900655
2454 2455 -10.745548
2455 2 -7.968592
2455 2453 0.399689
2455 2454 -9.059429
2455 2455 17.628333
2456 2 -2.452862
2456 2045 -3.162165
2456 2456 10.943524
2456 2457 -5.281369
2456 2458 0.952873
2457 2 -0.888755
2457 2019 -0.019231
2457 2456 -4.272608
2457 2457 13.208126
2457 2458 -7.027532
2458 2 -7.84062
2458 2456 -0.059973
2458 2457 -6.220653
2458 2458 15.121245
2459 2 -3.011141
2459 2041 -3.162165
2459 2459 13.32887
2459 2460 -8.70666
2459 2461 2.551096
2460 2 -0.557537
2460 2015 -0.019231
2460 2459 -6.578135
2460 2460 18.900459
2460 2461 -10.745557
2461 2 -6.761379
2461 2459 0.399605
2461 2460 -9.059362
2461 2461 16.421136
2462 2 -2.452862
2462 2045 -3.162165
2462 2462 10.943524
2462 2463 -5.281371
2462 2464 0.952875
2463 2 -0.888755
2463 2019 -0.019231
2463 2462 -4.272608
2463 2463 13.208129
2463 2464 -7.027536
2464 2 -6.632662
2464 2462 -0.059973
2464 2463 -6.220655
2464 2464 13.91329
2465 2 -3.011141
2465 2041 -3.162165
2465 2465 13.32887
2465 2466 -8.70666
2465 2467 2.551096
2466 2 -0.557537
2466 2015 -0.019231
2466 2465 -6.578135
2466 2466 18.900459
2466 2467 -10.745557
2467 2 -6.761379
2467 2465 0.399605
2467 2466 -9.059362
2467 2467 16.421136
2468 2 -2.452862
2468 2045 -3.162165
2468 2468 10.943524
2468 2469 -5.281371
2468 2470 0.952875
2469 2 -0.888755
2469 2019 -0.019231
2469 2468 -4.272608
2469 2469 13.208129
2469 2470 -7.027536
2470 2 -6.632662
2470 2468 -0.059973
2470 2469 -6.220655
2470 2470 13.91329
2471 2 -3.011141
2471 2041 -3.162165
2471 2471 13.32887
2471 2472 -8.70666
2471 2473 2.551096
2472 2 -0.557537
2472 2015 -0.019231
2472 2471 -6.578135
2472 2472 18.900459
2472 2473 -10.745557
2473 2 -6.761379
2473 2471 0.399605
2473 2472 -9.059362
2473 2473 16.421136
2474 2 -2.452862
2474 2045 -3.162165
2474 2474 10.943524
2474 2475 -5.281371
2474 2476 0.952875
2475 2 -0.888755
2475 2019 -0.019231
2475 2474 -4.272608
2475 2475 13.208129
2475 2476 -7.027536
2476 2 -6.632662
2476 2474 -0.059973
2476 2475 -6.220655
2476 2476 13.91329
2477 2 -3.011141
2477 2041 -3.162165
2477 2477 13.32887
2477 2478 -8.70666
2477 2479 2.551096
2478 2 -0.557537
2478 2015 -0.019231
2478 2477 -6.578135
2478 2478 18.900459
2478 2479 -10.745557
2479 2 -6.761379
2479 2477 0.399605
2479 2478 -9.059362
2479 2479 16.421136
2480 2 -2.452862
2480 2045 -3.162165
2480 2480 10.943524
2480 2481 -5.281371
2480 2482 0.952875
2481 2 -0.888755
2481 2019 -0.019231
2481 2480 -4.272608
2481 2481 13.208129
2481 2482 -7.027536
2482 2 -6.632662
2482 2480 -0.059973
2482 2481 -6.220655
2482 2482 13.91329
2483 2 -3.011141
2483 2041 -3.162165
2483 2483 13.32887
2483 2484 -8.70666
2483 2485 2.551096
2484 2 -0.557537
2484 2015 -0.019231
2484 2483 -6.578135
2484 2484 18.900459
2484 2485 -10.745557
2485 2 -6.761379
2485 2483 0.399605
2485 2484 -9.059362
2485 2485 16.421136
2486 2 -2.452862
2486 2045 -3.162165
2486 2486 10.943524
2486 2487 -5.281371
2486 2488 0.952875
2487 2 -0.888755
2487 2019 -0.019231
2487 2486 -4.272608
2487 2487 13.208129
2487 2488 -7.027536
2488 2 -6.632662
2488 2486 -0.059973
2488 2487 -6.220655
2488 2488 13.91329
2489 2 -3.011141
2489 2041 -3.162165
2489 2489 13.32887
2489 2490 -8.70666
2489 2491 2.551096
2490 2 -0.557537
2490 2015 -0.019231
2490 2489 -6.578135
2490 2490 18.900459
2490 2491 -10.745557
2491 2 -6.761379
2491 2489 0.399605
2491 2490 -9.059362
2491 2491 16.421136
2492 2 -2.452862
2492 2045 -3.162165
2492 2492 10.943524
2492 2493 -5.281371
2492 2494 0.952875
2493 2 -0.888755
2493 2019 -0.019231
2493 2492 -4.272608
2493 2493 13.208129
2493 2494 -7.027536
2494 2 -6.632662
2494 2492 -0.059973
2494 2493 -6.220655
2494 2494 13.91329
2495 2 -3.011141
2495 2041 -3.162165
2495 2495 13.32887
2495 2496 -8.70666
2495 2497 2.551096
2496 2 -0.557537
2496 2015 -0.019231
2496 2495 -6.578135
2496 2496 18.900459
2496 2497 -10.745557
2497 2 -6.761379
2497 2495 0.399605
2497 2496 -9.059362
2497 2497 16.421136
2498 2 -2.452862
2498 2045 -3.162165
2498 2498 10.943524
2498 2499 -5.281371
2498 2500 0.952875
2499 2 -0.888755
2499 2019 -0.019231
2499 2498 -4.272608
2499 2499 13.208129
2499 2500 -7.027536
2500 2 -6.632662
2500 2498 -0.059973
2500 2499 -6.220655
2500 2500 13.91329
2501 2 -3.011141
2501 2041 -3.162165
2501 2501 13.32887
2501 2502 -8.70666
2501 2503 2.551096
2502 2 -0.557537
2502 2015 -0.019231
2502 2501 -6.578135
2502 2502 18.900459
2502 2503 -10.745557
2503 2 -6.761379
2503 2501 0.399605
2503 2502 -9.059362
2503 2503 16.421136
2504 2 -2.452862
2504 2045 -3.162165
2504 2504 10.943524
2504 2505 -5.281371
2504 2506 0.952875
2505 2 -0.888755
2505 2019 -0.019231
2505 2504 -4.272608
2505 2505 13.208129
2505 2506 -7.027536
2506 2 -6.632662
2506 2504 -0.059973
2506 2505 -6.220655
2506 2506 13.91329
2507 2 -3.011141
2507 2041 -3.162165
2507 2507 13.32887
2507 2508 -8.70666
2507 2509 2.551096
2508 2 -0.557537
2508 2015 -0.019231
2508 2507 -6.578135
2508 2508 18.900459
2508 2509 -10.745557
2509 2 -6.761379
2509 2507 0.399605
2509 2508 -9.059362
2509 2509 16.421136
2510 2 -2.452862
2510 2045 -3.162165
2510 2510 10.943524
2510 2511 -5.281371
2510 2512 0.952875
2511 2 -0.888755
2511 2019 -0.019231
2511 2510 -4.272608
2511 2511 13.208129
2511 2512 -7.027536
2512 2 -6.632662
2512 2510 -0.059973
2512 2511 -6.220655
2512 2512 13.91329
2513 2 -4.912108
2513 2041 -2.052634
2513 2513 14.120953
2513 2514 -8.70716
2513 2515 2.550949
2514 2 -0.557502
2514 2015 -0.019231
2514 2513 -6.579058
2514 2514 18.901141
2514 2515 -10.74535
2515 2 -6.761393
2515 2513 0.399915
2515 2514 -9.059587
2515 2515 16.421064
2516 2 -4.043635
2516 2045 -2.052634
2516 2516 11.424769
2516 2517 -5.281366
2516 2518 0.952866
2517 2 -0.888755
2517 2019 -0.019231
2517 2516 -4.272612
2517 2517 13.208115
2517 2518 -7.027517
2518 2 -6.632662
2518 2516 -0.059972
2518 2517 -6.220643
2518 2518 13.913277
2519 1 -1.7516
2519 5 -15.907306
2519 1918 -0.11236
2519 2519 18.771265
2520 1 -1.80556
2520 5 -17.42063
2520 1920 -0.11236
2520 2520 20.33855
2521 1 -1.7516
2521 5 -15.907306
2521 1918 -0.11236
2521 2521 18.771265
2522 1 -1.80556
2522 5 -17.42063
2522 1920 -0.11236
2522 2522 20.33855
2523 1 -1.7516
2523 5 -15.907306
2523 1918 -0.11236
2523 2523 18.771265
2524 1 -1.80556
2524 5 -17.42063
2524 1920 -0.11236
2524 2524 20.33855
2525 1 -1.741378
2525 5 -15.394791
2525 1922 -0.11236
2525 2525 18.248529
2526 1 -1.8045
2526 5 -17.42075
2526 1921 -0.11236
2526 2526 20.33761
2527 1 -1.741378
2527 5 -15.394791
2527 1922 -0.11236
2527 2527 18.248529
2528 1 -1.8045
2528 5 -17.42075
2528 1921 -0.11236
2528 2528 20.33761
2529 1 -1.741378
2529 5 -15.394791
2529 1922 -0.11236
2529 2529 18.248529
2530 1 -1.8045
2530 5 -17.42075
2530 1921 -0.11236
2530 2530 20.33761
2531 1918 -1.020408
2531 2531 2.020408
2531 7562 -1.0
2532 1 -19.606396
2532 1922 -27.7502
2532 2532 48.356596
2533 1 -19.606396
2533 1918 -27.7502
2533 2533 48.356596
2534 1920 -1.020408
2534 2534 2.020408
2534 7561 -1.0
2535 1 -19.606396
2535 1921 -27.7502
2535 2535 48.356596
2536 1 -19.606396
2536 1920 -27.7502
2536 2536 48.356596
2537 23 -4.385965
2537 2537 5.385965
2537 7559 -1.0
2538 19 -4.385965
2538 2538 5.385965
2538 7558 -1.0
2539 2539 5.385965
2539 2540 -4.385965
2539 7557 -1.0
2540 1 -16.8765
2540 2 -9.244
2540 4 -1.0705
2540 5 -2.0275
2540 2539 -4.385965
2540 2540 155.606038
2540 2545 -34.3644
2540 2547 -57.346
2540 3040 -0.091743
2540 3043 -0.091743
2540 3141 -0.11236
2540 3143 -0.11236
2540 3145 -0.11236
2540 3153 -1.020408
2540 3155 -27.7502
2541 2541 5.385965
2541 2542 -4.385965
2541 7560 -1.0
2542 1 -16.882
2542 2 -9.139
2542 4 -1.0705
2542 5 -2.094
2542 2541 -4.385965
2542 2542 155.555538
2542 2544 -34.3639
2542 2548 -57.329
2542 3046 -0.091743
2542 3049 -0.091743
2542 3142 -0.11236
2542 3144 -0.11236
2542 3146 -0.11236
2542 3156 -1.020408
2542 3158 -27.7502
2543 2543 5.385965
2543 3159 -4.385965
2543 7560 1.0
2544 1 -41.117
2544 2 -16.5255
2544 4 -25.0715
2544 5 -2.03
2544 6 -0.315
2544 2542 -34.3639
2544 2544 256.827596
2544 2545 -12.9405
2544 2548 -63.223
2544 2550 -0.045872
2544 2552 -0.789478
2544 2556 -0.045872
2544 2558 -1.216214
2544 2562 -0.045872
2544 2564 -1.216214
2544 2568 -0.045872
2544 2570 -1.216214
2544 2574 -0.045872
2544 2576 -1.216214
2544 2580 -0.045872
2544 2582 -1.216214
2544 2586 -0.045872
2544 2588 -1.216214
2544 2592 -0.045872
2544 2594 -1.216214
2544 2598 -0.045872
2544 2600 -1.216214
2544 2604 -0.045872
2544 2606 -1.216214
2544 2610 -0.045872
2544 2612 -1.216214
2544 2616 -0.045872
2544 2618 -1.216214
2544 2622 -0.045872
2544 2624 -1.216214
2544 2628 -0.045872
2544 2630 -1.216214
2544 2634 -0.045872
2544 2636 -1.216214
2544 2643 -1.522
2544 2731 -0.4245
2544 2735 -2.8285
2544 3004 -0.045872
2544 3006 -1.216214
2544 3010 -0.045872
2544 3012 -1.216214
2544 3016 -0.045872
2544 3018 -1.216214
2544 3022 -0.045872
2544 3024 -1.216214
2544 3028 -0.045872
2544 3030 -1.216214
2544 3034 -0.045872
2544 3036 -1.216214
2544 3045 -0.608106
2544 3048 -0.608106
2544 3055 -0.021413
2544 3061 -0.021413
2544 3067 -0.021413
2544 3073 -0.021413
2544 3148 -0.11236
2544 3150 -0.11236
2544 3152 -0.11236
2544 3157 -27.7502
2544 7555 1.0
2544 7559 1.0
2545 1 -41.1965
2545 2 -16.6505
2545 4 -25.0385
2545 5 -1.968
2545 6 -0.31
2545 2540 -34.3644
2545 2544 -12.9405
2545 2545 256.913596
2545 2547 -63.2005
2545 2549 -0.789478
2545 2553 -0.045872
2545 2555 -1.216214
2545 2559 -0.045872
2545 2561 -1.216214
2545 2565 -0.045872
2545 2567 -1.216214
2545 2571 -0.045872
2545 2573 -1.216214
2545 2577 -0.045872
2545 2579 -1.216214
2545 2583 -0.045872
2545 2585 -1.216214
2545 2589 -0.045872
2545 2591 -1.216214
2545 2595 -0.045872
2545 2597 -1.216214
2545 2601 -0.045872
2545 2603 -1.216214
2545 2607 -0.045872
2545 2609 -1.216214
2545 2613 -0.045872
2545 2615 -1.216214
2545 2619 -0.045872
2545 2621 -1.216214
2545 2625 -0.045872
2545 2627 -1.216214
2545 2631 -0.045872
2545 2633 -1.216214
2545 2637 -0.045872
2545 2639 -1.522
2545 2731 -2.832
2545 2735 -0.4245
2545 3003 -1.216214
2545 3007 -0.045872
2545 3009 -1.216214
2545 3013 -0.045872
2545 3015 -1.216214
2545 3019 -0.045872
2545 3021 -1.216214
2545 3025 -0.045872
2545 3027 -1.216214
2545 3031 -0.045872
2545 3033 -1.216214
2545 3037 -0.045872
2545 3039 -0.608106
2545 3042 -0.608106
2545 3052 -0.021413
2545 3058 -0.021413
2545 3064 -0.021413
2545 3070 -0.021413
2545 3147 -0.11236
2545 3149 -0.11236
2545 3151 -0.11236
2545 3154 -27.7502
2545 7556 1.0
2545 7558 1.0
2546 2546 5.385965
2546 3160 -4.385965
2546 7557 1.0
2547 1 -132.8115
2547 2 -194.2496
2547 4 -52.4615
2547 5 -55.2875
2547 17 -0.4625
2547 18 -0.4625
2547 2540 -57.346
2547 2545 -63.2005
2547 2547 557.2816
2548 1 -132.228
2548 2 -197.5526
2548 4 -52.4615
2548 5 -55.5525
2548 17 -0.531
2548 18 -0.531
2548 2542 -57.329
2548 2544 -63.223
2548 2548 560.4086
2549 4 -1.889622
2549 2545 -0.789478
2549 2549 5.207883
2549 2550 -2.012706
2549 2551 0.483923
2550 4 -0.469248
2550 2544 -0.045872
2550 2549 -1.520552
2550 2550 5.94167
2550 2551 -2.905997
2551 4 -2.857839
2551 2549 -0.042315
2551 2550 -2.516986
2551 2551 6.41714
2552 4 -2.556195
2552 2544 -0.789478
2552 2552 6.917971
2552 2553 -3.261105
2552 2554 0.688807
2553 4 -0.196801
2553 2545 -0.045872
2553 2552 -2.809497
2553 2553 7.609975
2553 2554 -3.557806
2554 4 -2.984844
2554 2552 0.319555
2554 2553 -3.277227
2554 2554 6.942516
2555 4 -1.146867
2555 2545 -1.216214
2555 2555 4.891865
2555 2556 -2.012704
2555 2557 0.483919
2556 4 -0.469249
2556 2544 -0.045872
2556 2555 -1.520554
2556 2556 5.941664
2556 2557 -2.90599
2557 4 -2.857838
2557 2555 -0.042315
2557 2556 -2.516981
2557 2557 6.417134
2558 4 -1.600377
2558 2544 -1.216214
2558 2558 6.388843
2558 2559 -3.261085
2558 2560 0.688833
2559 4 -0.196807
2559 2545 -0.045872
2559 2558 -2.809427
2559 2559 7.60995
2559 2560 -3.557844
2560 4 -2.984839
2560 2558 0.319519
2560 2559 -3.277215
2560 2560 6.942535
2561 4 -1.146867
2561 2545 -1.216214
2561 2561 4.891865
2561 2562 -2.012704
2561 2563 0.483919
2562 4 -0.469249
2562 2544 -0.045872
2562 2561 -1.520554
2562 2562 5.941664
2562 2563 -2.90599
2563 4 -2.857838
2563 2561 -0.042315
2563 2562 -2.516981
2563 2563 6.417134
2564 4 -1.600377
2564 2544 -1.216214
2564 2564 6.388843
2564 2565 -3.261085
2564 2566 0.688833
2565 4 -0.196807
2565 2545 -0.045872
2565 2564 -2.809427
2565 2565 7.60995
2565 2566 -3.557844
2566 4 -2.984839
2566 2564 0.319519
2566 2565 -3.277215
2566 2566 6.942535
2567 4 -1.146867
2567 2545 -1.216214
2567 2567 4.891865
2567 2568 -2.012704
2567 2569 0.483919
2568 4 -0.469249
2568 2544 -0.045872
2568 2567 -1.520554
2568 2568 5.941664
2568 2569 -2.90599
2569 4 -2.857838
2569 2567 -0.042315
2569 2568 -2.516981
2569 2569 6.417134
2570 4 -1.600377
2570 2544 -1.216214
2570 2570 6.388843
2570 2571 -3.261085
2570 2572 0.688833
2571 4 -0.196807
2571 2545 -0.045872
2571 2570 -2.809427
2571 2571 7.60995
2571 2572 -3.557844
2572 4 -2.984839
2572 2570 0.319519
2572 2571 -3.277215
2572 2572 6.942535
2573 4 -1.146867
2573 2545 -1.216214
2573 2573 4.891865
2573 2574 -2.012704
2573 2575 0.483919
2574 4 -0.469249
2574 2544 -0.045872
2574 2573 -1.520554
2574 2574 5.941664
2574 2575 -2.90599
2575 4 -2.857838
2575 2573 -0.042315
2575 2574 -2.516981
2575 2575 6.417134
2576 4 -1.600377
2576 2544 -1.216214
2576 2576 6.388843
2576 2577 -3.261085
2576 2578 0.688833
2577 4 -0.196807
2577 2545 -0.045872
2577 2576 -2.809427
2577 2577 7.60995
2577 2578 -3.557844
2578 4 -2.984839
2578 2576 0.319519
2578 2577 -3.277215
2578 2578 6.942535
2579 4 -1.146867
2579 2545 -1.216214
2579 2579 4.891865
2579 2580 -2.012704
2579 2581 0.483919
2580 4 -0.469249
2580 2544 -0.045872
2580 2579 -1.520554
2580 2580 5.941664
2580 2581 -2.90599
2581 4 -2.857838
2581 2579 -0.042315
2581 2580 -2.516981
2581 2581 6.417134
2582 4 -1.600377
2582 2544 -1.216214
2582 2582 6.388843
2582 2583 -3.261085
2582 2584 0.688833
2583 4 -0.196807
2583 2545 -0.045872
2583 2582 -2.809427
2583 2583 7.60995
2583 2584 -3.557844
2584 4 -2.984839
2584 2582 0.319519
2584 2583 -3.277215
2584 2584 6.942535
2585 4 -1.146867
2585 2545 -1.216214
2585 2585 4.891865
2585 2586 -2.012704
2585 2587 0.483919
2586 4 -0.469249
2586 2544 -0.045872
2586 2585 -1.520554
2586 2586 5.941664
2586 2587 -2.90599
2587 4 -2.857838
2587 2585 -0.042315
2587 2586 -2.516981
2587 2587 6.417134
2588 4 -1.600377
2588 2544 -1.216214
2588 2588 6.388843
2588 2589 -3.261085
2588 2590 0.688833
2589 4 -0.196807
2589 2545 -0.045872
2589 2588 -2.809427
2589 2589 7.60995
2589 2590 -3.557844
2590 4 -2.984839
2590 2588 0.319519
2590 2589 -3.277215
2590 2590 6.942535
2591 4 -1.146867
2591 2545 -1.216214
2591 2591 4.891865
2591 2592 -2.012704
2591 2593 0.483919
2592 4 -0.469249
2592 2544 -0.045872
2592 2591 -1.520554
2592 2592 5.941664
2592 2593 -2.90599
2593 4 -2.857838
2593 2591 -0.042315
2593 2592 -2.516981
2593 2593 6.417134
2594 4 -1.600377
2594 2544 -1.216214
2594 2594 6.388843
2594 2595 -3.261085
2594 2596 0.688833
2595 4 -0.196807
2595 2545 -0.045872
2595 2594 -2.809427
2595 2595 7.60995
2595 2596 -3.557844
2596 4 -2.984839
2596 2594 0.319519
2596 2595 -3.277215
2596 2596 6.942535
2597 4 -1.146867
2597 2545 -1.216214
2597 2597 4.891865
2597 2598 -2.012704
2597 2599 0.483919
2598 4 -0.469249
2598 2544 -0.045872
2598 2597 -1.520554
2598 2598 5.941664
2598 2599 -2.90599
2599 4 -2.857838
2599 2597 -0.042315
2599 2598 -2.516981
2599 2599 6.417134
2600 4 -1.600377
2600 2544 -1.216214
2600 2600 6.388843
2600 2601 -3.261085
2600 2602 0.688833
2601 4 -0.196807
2601 2545 -0.045872
2601 2600 -2.809427
2601 2601 7.60995
2601 2602 -3.557844
2602 4 -2.984839
2602 2600 0.319519
2602 2601 -3.277215
2602 2602 6.942535
2603 4 -1.146867
2603 2545 -1.216214
2603 2603 4.891865
2603 2604 -2.012704
2603 2605 0.483919
2604 4 -0.469249
2604 2544 -0.045872
2604 2603 -1.520554
2604 2604 5.941664
2604 2605 -2.90599
2605 4 -2.857838
2605 2603 -0.042315
2605 2604 -2.516981
2605 2605 6.417134
2606 4 -1.600377
2606 2544 -1.216214
2606 2606 6.388843
2606 2607 -3.261085
2606 2608 0.688833
2607 4 -0.196807
2607 2545 -0.045872
2607 2606 -2.809427
2607 2607 7.60995
2607 2608 -3.557844
2608 4 -2.984839
2608 2606 0.319519
2608 2607 -3.277215
2608 2608 6.942535
2609 4 -1.146867
2609 2545 -1.216214
2609 2609 4.891865
2609 2610 -2.012704
2609 2611 0.483919
2610 4 -0.469249
2610 2544 -0.045872
2610 2609 -1.520554
2610 2610 5.941664
2610 2611 -2.90599
2611 4 -2.857838
2611 2609 -0.042315
2611 2610 -2.516981
2611 2611 6.417134
2612 4 -1.600377
2612 2544 -1.216214
2612 2612 6.388843
2612 2613 -3.261085
2612 2614 0.688833
2613 4 -0.196807
2613 2545 -0.045872
2613 2612 -2.809427
2613 2613 7.60995
2613 2614 -3.557844
2614 4 -2.984839
2614 2612 0.319519
2614 2613 -3.277215
2614 2614 6.942535
2615 4 -1.146867
2615 2545 -1.216214
2615 2615 4.891865
2615 2616 -2.012704
2615 2617 0.483919
2616 4 -0.469249
2616 2544 -0.045872
2616 2615 -1.520554
2616 2616 5.941664
2616 2617 -2.90599
2617 4 -2.857838
2617 2615 -0.042315
2617 2616 -2.516981
2617 2617 6.417134
2618 4 -1.600377
2618 2544 -1.216214
2618 2618 6.388843
2618 2619 -3.261085
2618 2620 0.688833
2619 4 -0.196807
2619 2545 -0.045872
2619 2618 -2.809427
2619 2619 7.60995
2619 2620 -3.557844
2620 4 -2.984839
2620 2618 0.319519
2620 2619 -3.277215
2620 2620 6.942535
2621 4 -1.146867
2621 2545 -1.216214
2621 2621 4.891865
2621 2622 -2.012704
2621 2623 0.483919
2622 4 -0.469249
2622 2544 -0.045872
2622 2621 -1.520554
2622 2622 5.941664
2622 2623 -2.90599
2623 4 -2.857838
2623 2621 -0.042315
2623 2622 -2.516981
2623 2623 6.417134
2624 4 -1.600377
2624 2544 -1.216214
2624 2624 6.388843
2624 2625 -3.261085
2624 2626 0.688833
2625 4 -0.196807
2625 2545 -0.045872
2625 2624 -2.809427
2625 2625 7.60995
2625 2626 -3.557844
2626 4 -2.984839
2626 2624 0.319519
2626 2625 -3.277215
2626 2626 6.942535
2627 4 -1.146867
2627 2545 -1.216214
2627 2627 4.891865
2627 2628 -2.012704
2627 2629 0.483919
2628 4 -0.469249
2628 2544 -0.045872
2628 2627 -1.520554
2628 2628 5.941664
2628 2629 -2.90599
2629 4 -2.857838
2629 2627 -0.042315
2629 2628 -2.516981
2629 2629 6.417134
2630 4 -1.600377
2630 2544 -1.216214
2630 2630 6.388843
2630 2631 -3.261085
2630 2632 0.688833
2631 4 -0.196807
2631 2545 -0.045872
2631 2630 -2.809427
2631 2631 7.60995
2631 2632 -3.557844
2632 4 -2.984839
2632 2630 0.319519
2632 2631 -3.277215
2632 2632 6.942535
2633 4 -1.146864
2633 2545 -1.216214
2633 2633 4.891867
2633 2634 -2.012687
2633 2635 0.483898
2634 4 -0.469254
2634 2544 -0.045872
2634 2633 -1.520556
2634 2634 5.941627
2634 2635 -2.905946
2635 4 -3.494892
2635 2633 -0.042313
2635 2634 -2.516954
2635 2635 7.054159
2636 4 -1.600378
2636 2544 -1.216214
2636 2636 6.388859
2636 2637 -3.261093
2636 2638 0.688825
2637 4 -0.196802
2637 2545 -0.045872
2637 2636 -2.809451
2637 2637 7.609959
2637 2638 -3.557835
2638 4 -3.621829
2638 2636 0.319531
2638 2637 -3.27722
2638 2638 7.579517
2639 1 -17.2055
2639 2 -19.5265
2639 4 -5.6965
2639 6 -0.0405
2639 18 -2.847
2639 2545 -1.522
2639 2639 68.59008
2639 2640 -2.297298
2639 2647 -2.297298
2639 2653 -2.297298
2639 2659 -2.297298
2639 3051 -2.837837
2639 3057 -2.837837
2639 3063 -2.837837
2639 3069 -2.837837
2639 3076 -0.019231
2639 3082 -0.019231
2639 3088 -0.019231
2639 3094 -0.019231
2639 3100 -0.019231
2639 3106 -0.019231
2639 3112 -0.019231
2639 3118 -0.019231
2639 3124 -0.019231
2639 3130 -0.019231
2639 3136 -0.019231
2640 4 -2.43792
2640 2639 -2.297298
2640 2640 9.67263
2640 2641 -5.843496
2640 2642 1.906084
2641 2 -0.026455
2641 4 -0.56704
2641 2640 -4.139946
2641 2641 13.486311
2641 2642 -7.75287
2642 4 -6.565641
2642 2640 0.105516
2642 2641 -6.308841
2642 2642 13.768966
2643 1 -17.185
2643 2 -19.5575
2643 4 -5.6545
2643 6 -0.0345
2643 17 -2.8445
2643 2544 -1.522
2643 2643 68.55008
2643 2644 -2.297298
2643 2650 -2.297298
2643 2656 -2.297298
2643 2662 -2.297298
2643 3054 -2.837837
2643 3060 -2.837837
2643 3066 -2.837837
2643 3072 -2.837837
2643 3079 -0.019231
2643 3085 -0.019231
2643 3091 -0.019231
2643 3097 -0.019231
2643 3103 -0.019231
2643 3109 -0.019231
2643 3115 -0.019231
2643 3121 -0.019231
2643 3127 -0.019231
2643 3133 -0.019231
2643 3139 -0.019231
2644 4 -2.595913
2644 2643 -2.297298
2644 2644 10.437925
2644 2645 -6.286664
2644 2646 1.74195
2645 2 -0.026455
2645 4 -0.511407
2645 2644 -4.881433
2645 2645 13.978391
2645 2646 -7.559096
2646 4 -6.593669
2646 2644 0.384012
2646 2645 -6.490458
2646 2646 13.700115
2647 4 -2.437919
2647 2639 -2.297298
2647 2647 9.672565
2647 2648 -5.84344
2647 2649 1.906092
2648 2 -0.026455
2648 4 -0.56705
2648 2647 -4.139874
2648 2648 13.486258
2648 2649 -7.752879
2649 4 -5.458687
2649 2647 0.105494
2649 2648 -6.30882
2649 2649 12.662013
2650 4 -2.595906
2650 2643 -2.297298
2650 2650 10.437836
2650 2651 -6.286602
2650 2652 1.741969
2651 2 -0.026455
2651 4 -0.511425
2651 2650 -4.881322
2651 2651 13.978322
2651 2652 -7.55912
2652 4 -5.486659
2652 2650 0.383969
2652 2651 -6.490428
2652 2652 12.593117
2653 4 -2.437919
2653 2639 -2.297298
2653 2653 9.672565
2653 2654 -5.84344
2653 2655 1.906092
2654 2 -0.026455
2654 4 -0.56705
2654 2653 -4.139874
2654 2654 13.486258
2654 2655 -7.752879
2655 4 -5.458687
2655 2653 0.105494
2655 2654 -6.30882
2655 2655 12.662013
2656 4 -2.595906
2656 2643 -2.297298
2656 2656 10.437836
2656 2657 -6.286602
2656 2658 1.741969
2657 2 -0.026455
2657 4 -0.511425
2657 2656 -4.881322
2657 2657 13.978322
2657 2658 -7.55912
2658 4 -5.486659
2658 2656 0.383969
2658 2657 -6.490428
2658 2658 12.593117
2659 4 -2.43792
2659 2639 -2.297298
2659 2659 9.67263
2659 2660 -5.843496
2659 2661 1.906084
2660 2 -0.026455
2660 4 -0.56704
2660 2659 -4.139946
2660 2660 13.486311
2660 2661 -7.75287
2661 4 -6.565641
2661 2659 0.105516
2661 2660 -6.308841
2661 2661 13.768966
2662 4 -2.595913
2662 2643 -2.297298
2662 2662 10.437925
2662 2663 -6.286664
2662 2664 1.74195
2663 2 -0.026455
2663 4 -0.511407
2663 2662 -4.881433
2663 2663 13.978391
2663 2664 -7.559096
2664 4 -6.593669
2664 2662 0.384012
2664 2663 -6.490458
2664 2664 13.700115
2665 4 -5.349513
2665 18 -1.754386
2665 2665 14.241143
2665 2666 -7.835858
2665 2667 1.698614
2666 2 -0.022523
2666 4 -0.519285
2666 2665 -6.844012
2666 2666 16.792333
2666 2667 -8.406513
2667 4 -6.477696
2667 2665 0.959944
2667 2666 -7.872018
2667 2667 14.38977
2668 4 -4.210365
2668 17 -1.754386
2668 2668 10.946804
2668 2669 -6.310781
2668 2670 2.328727
2669 2 -0.022523
2669 4 -0.738877
2669 2668 -4.123739
2669 2669 15.091462
2669 2670 -9.206323
2670 4 -6.354192
2670 2668 -0.107396
2670 2669 -7.242729
2670 2670 14.704317
2671 4 -3.373754
2671 18 -2.702703
2671 2671 13.21361
2671 2672 -7.835821
2671 2673 1.698667
2672 2 -0.022523
2672 4 -0.519296
2672 2671 -6.843872
2672 2672 16.792285
2672 2673 -8.406595
2673 4 -6.477687
2673 2671 0.959871
2673 2672 -7.871994
2673 2673 14.38981
2674 4 -2.610098
2674 17 -2.702703
2674 2674 10.294774
2674 2675 -6.3107
2674 2676 2.328727
2675 2 -0.022523
2675 4 -0.738892
2675 2674 -4.123648
2675 2675 15.09138
2675 2676 -9.206317
2676 4 -6.354185
2676 2674 -0.107417
2676 2675 -7.242711
2676 2676 14.704313
2677 4 -3.373754
2677 18 -2.702703
2677 2677 13.21361
2677 2678 -7.835821
2677 2679 1.698667
2678 2 -0.022523
2678 4 -0.519296
2678 2677 -6.843872
2678 2678 16.792285
2678 2679 -8.406595
2679 4 -6.477687
2679 2677 0.959871
2679 2678 -7.871994
2679 2679 14.38981
2680 4 -2.610098
2680 17 -2.702703
2680 2680 10.294774
2680 2681 -6.3107
2680 2682 2.328727
2681 2 -0.022523
2681 4 -0.738892
2681 2680 -4.123648
2681 2681 15.09138
2681 2682 -9.206317
2682 4 -6.354185
2682 2680 -0.107417
2682 2681 -7.242711
2682 2682 14.704313
2683 4 -3.373754
2683 18 -2.702703
2683 2683 13.21361
2683 2684 -7.835821
2683 2685 1.698667
2684 2 -0.022523
2684 4 -0.519296
2684 2683 -6.843872
2684 2684 16.792285
2684 2685 -8.406595
2685 4 -6.477687
2685 2683 0.959871
2685 2684 -7.871994
2685 2685 14.38981
2686 4 -2.610098
2686 17 -2.702703
2686 2686 10.294774
2686 2687 -6.3107
2686 2688 2.328727
2687 2 -0.022523
2687 4 -0.738892
2687 2686 -4.123648
2687 2687 15.09138
2687 2688 -9.206317
2688 4 -6.354185
2688 2686 -0.107417
2688 2687 -7.242711
2688 2688 14.704313
2689 4 -3.373754
2689 18 -2.702703
2689 2689 13.21361
2689 2690 -7.835821
2689 2691 1.698667
2690 2 -0.022523
2690 4 -0.519296
2690 2689 -6.843872
2690 2690 16.792285
2690 2691 -8.406595
2691 4 -6.477687
2691 2689 0.959871
2691 2690 -7.871994
2691 2691 14.38981
2692 4 -2.610098
2692 17 -2.702703
2692 2692 10.294774
2692 2693 -6.3107
2692 2694 2.328727
2693 2 -0.022523
2693 4 -0.738892
2693 2692 -4.123648
2693 2693 15.09138
2693 2694 -9.206317
2694 4 -6.354185
2694 2692 -0.107417
2694 2693 -7.242711
2694 2694 14.704313
2695 4 -3.373754
2695 18 -2.702703
2695 2695 13.21361
2695 2696 -7.835821
2695 2697 1.698667
2696 2 -0.022523
2696 4 -0.519296
2696 2695 -6.843872
2696 2696 16.792285
2696 2697 -8.406595
2697 4 -6.477687
2697 2695 0.959871
2697 2696 -7.871994
2697 2697 14.38981
2698 4 -2.610098
2698 17 -2.702703
2698 2698 10.294774
2698 2699 -6.3107
2698 2700 2.328727
2699 2 -0.022523
2699 4 -0.738892
2699 2698 -4.123648
2699 2699 15.09138
2699 2700 -9.206317
2700 4 -6.354185
2700 2698 -0.107417
2700 2699 -7.242711
2700 2700 14.704313
2701 4 -3.373754
2701 18 -2.702703
2701 2701 13.21361
2701 2702 -7.835821
2701 2703 1.698667
2702 2 -0.022523
2702 4 -0.519296
2702 2701 -6.843872
2702 2702 16.792285
2702 2703 -8.406595
2703 4 -6.477687
2703 2701 0.959871
2703 2702 -7.871994
2703 2703 14.38981
2704 4 -2.610098
2704 17 -2.702703
2704 2704 10.294774
2704 2705 -6.3107
2704 2706 2.328727
2705 2 -0.022523
2705 4 -0.738892
2705 2704 -4.123648
2705 2705 15.09138
2705 2706 -9.206317
2706 4 -6.354185
2706 2704 -0.107417
2706 2705 -7.242711
2706 2706 14.704313
2707 4 -3.373754
2707 18 -2.702703
2707 2707 13.21361
2707 2708 -7.835821
2707 2709 1.698667
2708 2 -0.022523
2708 4 -0.519296
2708 2707 -6.843872
2708 2708 16.792285
2708 2709 -8.406595
2709 4 -6.477687
2709 2707 0.959871
2709 2708 -7.871994
2709 2709 14.38981
2710 4 -2.610098
2710 17 -2.702703
2710 2710 10.294774
2710 2711 -6.3107
2710 2712 2.328727
2711 2 -0.022523
2711 4 -0.738892
2711 2710 -4.123648
2711 2711 15.09138
2711 2712 -9.206317
2712 4 -6.354185
2712 2710 -0.107417
2712 2711 -7.242711
2712 2712 14.704313
2713 4 -3.373754
2713 18 -2.702703
2713 2713 13.21361
2713 2714 -7.835821
2713 2715 1.698667
2714 2 -0.022523
2714 4 -0.519296
2714 2713 -6.843872
2714 2714 16.792285
2714 2715 -8.406595
2715 4 -6.477687
2715 2713 0.959871
2715 2714 -7.871994
2715 2715 14.38981
2716 4 -2.610098
2716 17 -2.702703
2716 2716 10.294774
2716 2717 -6.3107
2716 2718 2.328727
2717 2 -0.022523
2717 4 -0.738892
2717 2716 -4.123648
2717 2717 15.09138
2717 2718 -9.206317
2718 4 -6.354185
2718 2716 -0.107417
2718 2717 -7.242711
2718 2718 14.704313
2719 4 -3.373754
2719 18 -2.702703
2719 2719 13.21361
2719 2720 -7.835821
2719 2721 1.698667
2720 2 -0.022523
2720 4 -0.519296
2720 2719 -6.843872
2720 2720 16.792285
2720 2721 -8.406595
2721 4 -6.477687
2721 2719 0.959871
2721 2720 -7.871994
2721 2721 14.38981
2722 4 -2.610098
2722 17 -2.702703
2722 2722 10.294774
2722 2723 -6.3107
2722 2724 2.328727
2723 2 -0.022523
2723 4 -0.738892
2723 2722 -4.123648
2723 2723 15.09138
2723 2724 -9.206317
2724 4 -6.354185
2724 2722 -0.107417
2724 2723 -7.242711
2724 2724 14.704313
2725 4 -3.373758
2725 18 -2.702703
2725 2725 13.213664
2725 2726 -7.835845
2725 2727 1.698641
2726 2 -0.022523
2726 4 -0.51928
2726 2725 -6.843956
2726 2726 16.792316
2726 2727 -8.406558
2727 4 -7.761143
2727 2725 0.959912
2727 2726 -7.87201
2727 2727 15.673241
2728 4 -2.610085
2728 17 -2.702703
2728 2728 10.294774
2728 2729 -6.310705
2728 2730 2.328719
2729 2 -0.022523
2729 4 -0.738895
2729 2728 -4.123643
2729 2729 15.091371
2729 2730 -9.206311
2730 4 -7.637375
2730 2728 -0.107422
2730 2729 -7.242712
2730 2730 15.987509
2731 1 -15.837
2731 2 -74.9745
2731 4 -1.555
2731 6 -11.935
2731 2544 -0.4245
2731 2545 -2.832
2731 2731 296.098563
2731 2732 -4.054065
2731 2735 -0.03
2731 2739 -4.054065
2731 2745 -4.054065
2731 2751 -4.054065
2731 2757 -4.054065
2731 2763 -4.054065
2731 2769 -4.054065
2731 2775 -4.054065
2731 2781 -4.054065
2731 2787 -4.054065
2731 2793 -4.054065
2731 2799 -4.054065
2731 2805 -4.054065
2731 2811 -4.054065
2731 2817 -4.054065
2731 2823 -4.054065
2731 2829 -4.054065
2731 2835 -4.054065
2731 2841 -4.054065
2731 2847 -4.054065
2731 2853 -4.054065
2731 2859 -4.054065
2731 2865 -4.054065
2731 2871 -4.054065
2731 2877 -4.054065
2731 2883 -4.054065
2731 2889 -4.054065
2731 2895 -4.054065
2731 2901 -4.054065
2731 2907 -4.054065
2731 2913 -4.054065
2731 2919 -4.054065
2731 2925 -4.054065
2731 2931 -4.054065
2731 2937 -4.054065
2731 2943 -4.054065
2731 2949 -4.054065
2731 2955 -4.054065
2731 2961 -4.054065
2731 2967 -4.054065
2731 2973 -4.054065
2731 2979 -4.054065
2731 2985 -4.054065
2731 2991 -4.054065
2731 2997 -2.674898
2731 3005 -0.802472
2731 3011 -1.216214
2731 3017 -1.216214
2731 3023 -1.216214
2731 3029 -1.216214
2731 3035 -0.789478
2732 2 -4.550377
2732 2731 -4.054065
2732 2732 18.653152
2732 2733 -11.209747
2732 2734 2.161036
2733 2 -0.55115
2733 6 -0.013755
2733 2732 -10.314175
2733 2733 23.509199
2733 2734 -11.630119
2734 2 -10.14787
2734 2732 1.350244
2734 2733 -11.21375
2734 2734 21.011377
2735 1 -15.7255
2735 2 -75.113
2735 4 -1.5575
2735 6 -11.9355
2735 2544 -2.8285
2735 2545 -0.4245
2735 2731 -0.03
2735 2735 296.125063
2735 2736 -4.054065
2735 2742 -4.054065
2735 2748 -4.054065
2735 2754 -4.054065
2735 2760 -4.054065
2735 2766 -4.054065
2735 2772 -4.054065
2735 2778 -4.054065
2735 2784 -4.054065
2735 2790 -4.054065
2735 2796 -4.054065
2735 2802 -4.054065
2735 2808 -4.054065
2735 2814 -4.054065
2735 2820 -4.054065
2735 2826 -4.054065
2735 2832 -4.054065
2735 2838 -4.054065
2735 2844 -4.054065
2735 2850 -4.054065
2735 2856 -4.054065
2735 2862 -4.054065
2735 2868 -4.054065
2735 2874 -4.054065
2735 2880 -4.054065
2735 2886 -4.054065
2735 2892 -4.054065
2735 2898 -4.054065
2735 2904 -4.054065
2735 2910 -4.054065
2735 2916 -4.054065
2735 2922 -4.054065
2735 2928 -4.054065
2735 2934 -4.054065
2735 2940 -4.054065
2735 2946 -4.054065
2735 2952 -4.054065
2735 2958 -4.054065
2735 2964 -4.054065
2735 2970 -4.054065
2735 2976 -4.054065
2735 2982 -4.054065
2735 2988 -4.054065
2735 2994 -4.054065
2735 3000 -2.674898
2735 3008 -0.802472
2735 3014 -1.216214
2735 3020 -1.216214
2735 3026 -1.216214
2735 3032 -1.216214
2735 3038 -0.789478
2736 2 -4.569827
2736 2735 -4.054065
2736 2736 18.708933
2736 2737 -11.217511
2736 2738 2.13247
2737 2 -0.549773
2737 6 -0.013755
2737 2736 -10.377171
2737 2737 23.520075
2737 2738 -11.579375
2738 2 -10.148615
2738 2736 1.380224
2738 2737 -11.217592
2738 2738 20.985983
2739 2 -4.550377
2739 2731 -4.054065
2739 2739 18.653143
2739 2740 -11.209744
2739 2741 2.161044
2740 2 -0.551151
2740 6 -0.013755
2740 2739 -10.314158
2740 2740 23.509196
2740 2741 -11.630132
2741 2 -8.623576
2741 2739 1.350235
2741 2740 -11.213749
2741 2741 19.48709
2742 2 -4.569827
2742 2735 -4.054065
2742 2742 18.708933
2742 2743 -11.217511
2742 2744 2.13247
2743 2 -0.549773
2743 6 -0.013755
2743 2742 -10.377171
2743 2743 23.520075
2743 2744 -11.579376
2744 2 -8.624301
2744 2742 1.380224
2744 2743 -11.217592
2744 2744 19.461669
2745 2 -4.550377
2745 2731 -4.054065
2745 2745 18.653143
2745 2746 -11.209744
2745 2747 2.161044
2746 2 -0.551151
2746 6 -0.013755
2746 2745 -10.314158
2746 2746 23.509196
2746 2747 -11.630132
2747 2 -8.623576
2747 2745 1.350235
2747 2746 -11.213749
2747 2747 19.48709
2748 2 -4.569827
2748 2735 -4.054065
2748 2748 18.708933
2748 2749 -11.217511
2748 2750 2.13247
2749 2 -0.549773
2749 6 -0.013755
2749 2748 -10.377171
2749 2749 23.520075
2749 2750 -11.579376
2750 2 -8.624301
2750 2748 1.380224
2750 2749 -11.217592
2750 2750 19.461669
2751 2 -4.550377
2751 2731 -4.054065
2751 2751 18.653143
2751 2752 -11.209744
2751 2753 2.161044
2752 2 -0.551151
2752 6 -0.013755
2752 2751 -10.314158
2752 2752 23.509196
2752 2753 -11.630132
2753 2 -8.623576
2753 2751 1.350235
2753 2752 -11.213749
2753 2753 19.48709
2754 2 -4.569827
2754 2735 -4.054065
2754 2754 18.708933
2754 2755 -11.217511
2754 2756 2.13247
2755 2 -0.549773
2755 6 -0.013755
2755 2754 -10.377171
2755 2755 23.520075
2755 2756 -11.579376
2756 2 -8.624301
2756 2754 1.380224
2756 2755 -11.217592
2756 2756 19.461669
2757 2 -4.550377
2757 2731 -4.054065
2757 2757 18.653143
2757 2758 -11.209744
2757 2759 2.161044
2758 2 -0.551151
2758 6 -0.013755
2758 2757 -10.314158
2758 2758 23.509196
2758 2759 -11.630132
2759 2 -8.623576
2759 2757 1.350235
2759 2758 -11.213749
2759 2759 19.48709
2760 2 -4.569827
2760 2735 -4.054065
2760 2760 18.708933
2760 2761 -11.217511
2760 2762 2.13247
2761 2 -0.549773
2761 6 -0.013755
2761 2760 -10.377171
2761 2761 23.520075
2761 2762 -11.579376
2762 2 -8.624301
2762 2760 1.380224
2762 2761 -11.217592
2762 2762 19.461669
2763 2 -4.550377
2763 2731 -4.054065
2763 2763 18.653143
2763 2764 -11.209744
2763 2765 2.161044
2764 2 -0.551151
2764 6 -0.013755
2764 2763 -10.314158
2764 2764 23.509196
2764 2765 -11.630132
2765 2 -8.623576
2765 2763 1.350235
2765 2764 -11.213749
2765 2765 19.48709
2766 2 -4.569827
2766 2735 -4.054065
2766 2766 18.708933
2766 2767 -11.217511
2766 2768 2.13247
2767 2 -0.549773
2767 6 -0.013755
2767 2766 -10.377171
2767 2767 23.520075
2767 2768 -11.579376
2768 2 -8.624301
2768 2766 1.380224
2768 2767 -11.217592
2768 2768 19.461669
2769 2 -4.550377
2769 2731 -4.054065
2769 2769 18.653143
2769 2770 -11.209744
2769 2771 2.161044
2770 2 -0.551151
2770 6 -0.013755
2770 2769 -10.314158
2770 2770 23.509196
2770 2771 -11.630132
2771 2 -8.623576
2771 2769 1.350235
2771 2770 -11.213749
2771 2771 19.48709
2772 2 -4.569827
2772 2735 -4.054065
2772 2772 18.708933
2772 2773 -11.217511
2772 2774 2.13247
2773 2 -0.549773
2773 6 -0.013755
2773 2772 -10.377171
2773 2773 23.520075
2773 2774 -11.579376
2774 2 -8.624301
2774 2772 1.380224
2774 2773 -11.217592
2774 2774 19.461669
2775 2 -4.550377
2775 2731 -4.054065
2775 2775 18.653143
2775 2776 -11.209744
2775 2777 2.161044
2776 2 -0.551151
2776 6 -0.013755
2776 2775 -10.314158
2776 2776 23.509196
2776 2777 -11.630132
2777 2 -8.623576
2777 2775 1.350235
2777 2776 -11.213749
2777 2777 19.48709
2778 2 -4.569827
2778 2735 -4.054065
2778 2778 18.708933
2778 2779 -11.217511
2778 2780 2.13247
2779 2 -0.549773
2779 6 -0.013755
2779 2778 -10.377171
2779 2779 23.520075
2779 2780 -11.579376
2780 2 -8.624301
2780 2778 1.380224
2780 2779 -11.217592
2780 2780 19.461669
2781 2 -4.550377
2781 2731 -4.054065
2781 2781 18.653143
2781 2782 -11.209744
2781 2783 2.161044
2782 2 -0.551151
2782 6 -0.013755
2782 2781 -10.314158
2782 2782 23.509196
2782 2783 -11.630132
2783 2 -8.623576
2783 2781 1.350235
2783 2782 -11.213749
2783 2783 19.48709
2784 2 -4.569827
2784 2735 -4.054065
2784 2784 18.708933
2784 2785 -11.217511
2784 2786 2.13247
2785 2 -0.549773
2785 6 -0.013755
2785 2784 -10.377171
2785 2785 23.520075
2785 2786 -11.579376
2786 2 -8.624301
2786 2784 1.380224
2786 2785 -11.217592
2786 2786 19.461669
2787 2 -4.550377
2787 2731 -4.054065
2787 2787 18.653143
2787 2788 -11.209744
2787 2789 2.161044
2788 2 -0.551151
2788 6 -0.013755
2788 2787 -10.314158
2788 2788 23.509196
2788 2789 -11.630132
2789 2 -8.623576
2789 2787 1.350235
2789 2788 -11.213749
2789 2789 19.48709
2790 2 -4.569827
2790 2735 -4.054065
2790 2790 18.708933
2790 2791 -11.217511
2790 2792 2.13247
2791 2 -0.549773
2791 6 -0.013755
2791 2790 -10.377171
2791 2791 23.520075
2791 2792 -11.579376
2792 2 -8.624301
2792 2790 1.380224
2792 2791 -11.217592
2792 2792 19.461669
2793 2 -4.550377
2793 2731 -4.054065
2793 2793 18.653143
2793 2794 -11.209744
2793 2795 2.161044
2794 2 -0.551151
2794 6 -0.013755
2794 2793 -10.314158
2794 2794 23.509196
2794 2795 -11.630132
2795 2 -8.623576
2795 2793 1.350235
2795 2794 -11.213749
2795 2795 19.48709
2796 2 -4.569827
2796 2735 -4.054065
2796 2796 18.708933
2796 2797 -11.217511
2796 2798 2.13247
2797 2 -0.549773
2797 6 -0.013755
2797 2796 -10.377171
2797 2797 23.520075
2797 2798 -11.579376
2798 2 -8.624301
2798 2796 1.380224
2798 2797 -11.217592
2798 2798 19.461669
2799 2 -4.550377
2799 2731 -4.054065
2799 2799 18.653143
2799 2800 -11.209744
2799 2801 2.161044
2800 2 -0.551151
2800 6 -0.013755
2800 2799 -10.314158
2800 2800 23.509196
2800 2801 -11.630132
2801 2 -8.623576
2801 2799 1.350235
2801 2800 -11.213749
2801 2801 19.48709
2802 2 -4.569827
2802 2735 -4.054065
2802 2802 18.708933
2802 2803 -11.217511
2802 2804 2.13247
2803 2 -0.549773
2803 6 -0.013755
2803 2802 -10.377171
2803 2803 23.520075
2803 2804 -11.579376
2804 2 -8.624301
2804 2802 1.380224
2804 2803 -11.217592
2804 2804 19.461669
2805 2 -4.550377
2805 2731 -4.054065
2805 2805 18.653143
2805 2806 -11.209744
2805 2807 2.161044
2806 2 -0.551151
2806 6 -0.013755
2806 2805 -10.314158
2806 2806 23.509196
2806 2807 -11.630132
2807 2 -8.623576
2807 2805 1.350235
2807 2806 -11.213749
2807 2807 19.48709
2808 2 -4.569827
2808 2735 -4.054065
2808 2808 18.708933
2808 2809 -11.217511
2808 2810 2.13247
2809 2 -0.549773
2809 6 -0.013755
2809 2808 -10.377171
2809 2809 23.520075
2809 2810 -11.579376
2810 2 -8.624301
2810 2808 1.380224
2810 2809 -11.217592
2810 2810 19.461669
2811 2 -4.550377
2811 2731 -4.054065
2811 2811 18.653143
2811 2812 -11.209744
2811 2813 2.161044
2812 2 -0.551151
2812 6 -0.013755
2812 2811 -10.314158
2812 2812 23.509196
2812 2813 -11.630132
2813 2 -8.623576
2813 2811 1.350235
2813 2812 -11.213749
2813 2813 19.48709
2814 2 -4.569827
2814 2735 -4.054065
2814 2814 18.708933
2814 2815 -11.217511
2814 2816 2.13247
2815 2 -0.549773
2815 6 -0.013755
2815 2814 -10.377171
2815 2815 23.520075
2815 2816 -11.579376
2816 2 -8.624301
2816 2814 1.380224
2816 2815 -11.217592
2816 2816 19.461669
2817 2 -4.550377
2817 2731 -4.054065
2817 2817 18.653143
2817 2818 -11.209744
2817 2819 2.161044
2818 2 -0.551151
2818 6 -0.013755
2818 2817 -10.314158
2818 2818 23.509196
2818 2819 -11.630132
2819 2 -8.623576
2819 2817 1.350235
2819 2818 -11.213749
2819 2819 19.48709
2820 2 -4.569827
2820 2735 -4.054065
2820 2820 18.708933
2820 2821 -11.217511
2820 2822 2.13247
2821 2 -0.549773
2821 6 -0.013755
2821 2820 -10.377171
2821 2821 23.520075
2821 2822 -11.579376
2822 2 -8.624301
2822 2820 1.380224
2822 2821 -11.217592
2822 2822 19.461669
2823 2 -4.550377
2823 2731 -4.054065
2823 2823 18.653143
2823 2824 -11.209744
2823 2825 2.161044
2824 2 -0.551151
2824 6 -0.013755
2824 2823 -10.314158
2824 2824 23.509196
2824 2825 -11.630132
2825 2 -8.623576
2825 2823 1.350235
2825 2824 -11.213749
2825 2825 19.48709
2826 2 -4.569827
2826 2735 -4.054065
2826 2826 18.708933
2826 2827 -11.217511
2826 2828 2.13247
2827 2 -0.549773
2827 6 -0.013755
2827 2826 -10.377171
2827 2827 23.520075
2827 2828 -11.579376
2828 2 -8.624301
2828 2826 1.380224
2828 2827 -11.217592
2828 2828 19.461669
2829 2 -4.550377
2829 2731 -4.054065
2829 2829 18.653143
2829 2830 -11.209744
2829 2831 2.161044
2830 2 -0.551151
2830 6 -0.013755
2830 2829 -10.314158
2830 2830 23.509196
2830 2831 -11.630132
2831 2 -8.623576
2831 2829 1.350235
2831 2830 -11.213749
2831 2831 19.48709
2832 2 -4.569827
2832 2735 -4.054065
2832 2832 18.708933
2832 2833 -11.217511
2832 2834 2.13247
2833 2 -0.549773
2833 6 -0.013755
2833 2832 -10.377171
2833 2833 23.520075
2833 2834 -11.579376
2834 2 -8.624301
2834 2832 1.380224
2834 2833 -11.217592
2834 2834 19.461669
2835 2 -4.550377
2835 2731 -4.054065
2835 2835 18.653143
2835 2836 -11.209744
2835 2837 2.161044
2836 2 -0.551151
2836 6 -0.013755
2836 2835 -10.314158
2836 2836 23.509196
2836 2837 -11.630132
2837 2 -8.623576
2837 2835 1.350235
2837 2836 -11.213749
2837 2837 19.48709
2838 2 -4.569827
2838 2735 -4.054065
2838 2838 18.708933
2838 2839 -11.217511
2838 2840 2.13247
2839 2 -0.549773
2839 6 -0.013755
2839 2838 -10.377171
2839 2839 23.520075
2839 2840 -11.579376
2840 2 -8.624301
2840 2838 1.380224
2840 2839 -11.217592
2840 2840 19.461669
2841 2 -4.550377
2841 2731 -4.054065
2841 2841 18.653143
2841 2842 -11.209744
2841 2843 2.161044
2842 2 -0.551151
2842 6 -0.013755
2842 2841 -10.314158
2842 2842 23.509196
2842 2843 -11.630132
2843 2 -8.623576
2843 2841 1.350235
2843 2842 -11.213749
2843 2843 19.48709
2844 2 -4.569827
2844 2735 -4.054065
2844 2844 18.708933
2844 2845 -11.217511
2844 2846 2.13247
2845 2 -0.549773
2845 6 -0.013755
2845 2844 -10.377171
2845 2845 23.520075
2845 2846 -11.579376
2846 2 -8.624301
2846 2844 1.380224
2846 2845 -11.217592
2846 2846 19.461669
2847 2 -4.550377
2847 2731 -4.054065
2847 2847 18.653143
2847 2848 -11.209744
2847 2849 2.161044
2848 2 -0.551151
2848 6 -0.013755
2848 2847 -10.314158
2848 2848 23.509196
2848 2849 -11.630132
2849 2 -8.623576
2849 2847 1.350235
2849 2848 -11.213749
2849 2849 19.48709
2850 2 -4.569827
2850 2735 -4.054065
2850 2850 18.708933
2850 2851 -11.217511
2850 2852 2.13247
2851 2 -0.549773
2851 6 -0.013755
2851 2850 -10.377171
2851 2851 23.520075
2851 2852 -11.579376
2852 2 -8.624301
2852 2850 1.380224
2852 2851 -11.217592
2852 2852 19.461669
2853 2 -4.550377
2853 2731 -4.054065
2853 2853 18.653143
2853 2854 -11.209744
2853 2855 2.161044
2854 2 -0.551151
2854 6 -0.013755
2854 2853 -10.314158
2854 2854 23.509196
2854 2855 -11.630132
2855 2 -8.623576
2855 2853 1.350235
2855 2854 -11.213749
2855 2855 19.48709
2856 2 -4.569827
2856 2735 -4.054065
2856 2856 18.708933
2856 2857 -11.217511
2856 2858 2.13247
2857 2 -0.549773
2857 6 -0.013755
2857 2856 -10.377171
2857 2857 23.520075
2857 2858 -11.579376
2858 2 -8.624301
2858 2856 1.380224
2858 2857 -11.217592
2858 2858 19.461669
2859 2 -4.550377
2859 2731 -4.054065
2859 2859 18.653143
2859 2860 -11.209744
2859 2861 2.161044
2860 2 -0.551151
2860 6 -0.013755
2860 2859 -10.314158
2860 2860 23.509196
2860 2861 -11.630132
2861 2 -8.623576
2861 2859 1.350235
2861 2860 -11.213749
2861 2861 19.48709
2862 2 -4.569827
2862 2735 -4.054065
2862 2862 18.708933
2862 2863 -11.217511
2862 2864 2.13247
2863 2 -0.549773
2863 6 -0.013755
2863 2862 -10.377171
2863 2863 23.520075
2863 2864 -11.579376
2864 2 -8.624301
2864 2862 1.380224
2864 2863 -11.217592
2864 2864 19.461669
2865 2 -4.550377
2865 2731 -4.054065
2865 2865 18.653143
2865 2866 -11.209744
2865 2867 2.161044
2866 2 -0.551151
2866 6 -0.013755
2866 2865 -10.314158
2866 2866 23.509196
2866 2867 -11.630132
2867 2 -8.623576
2867 2865 1.350235
2867 2866 -11.213749
2867 2867 19.48709
2868 2 -4.569827
2868 2735 -4.054065
2868 2868 18.708933
2868 2869 -11.217511
2868 2870 2.13247
2869 2 -0.549773
2869 6 -0.013755
2869 2868 -10.377171
2869 2869 23.520075
2869 2870 -11.579376
2870 2 -8.624301
2870 2868 1.380224
2870 2869 -11.217592
2870 2870 19.461669
2871 2 -4.550377
2871 2731 -4.054065
2871 2871 18.653143
2871 2872 -11.209744
2871 2873 2.161044
2872 2 -0.551151
2872 6 -0.013755
2872 2871 -10.314158
2872 2872 23.509196
2872 2873 -11.630132
2873 2 -8.623576
2873 2871 1.350235
2873 2872 -11.213749
2873 2873 19.48709
2874 2 -4.569827
2874 2735 -4.054065
2874 2874 18.708933
2874 2875 -11.217511
2874 2876 2.13247
2875 2 -0.549773
2875 6 -0.013755
2875 2874 -10.377171
2875 2875 23.520075
2875 2876 -11.579376
2876 2 -8.624301
2876 2874 1.380224
2876 2875 -11.217592
2876 2876 19.461669
2877 2 -4.550377
2877 2731 -4.054065
2877 2877 18.653143
2877 2878 -11.209744
2877 2879 2.161044
2878 2 -0.551151
2878 6 -0.013755
2878 2877 -10.314158
2878 2878 23.509196
2878 2879 -11.630132
2879 2 -8.623576
2879 2877 1.350235
2879 2878 -11.213749
2879 2879 19.48709
2880 2 -4.569827
2880 2735 -4.054065
2880 2880 18.708933
2880 2881 -11.217511
2880 2882 2.13247
2881 2 -0.549773
2881 6 -0.013755
2881 2880 -10.377171
2881 2881 23.520075
2881 2882 -11.579376
2882 2 -8.624301
2882 2880 1.380224
2882 2881 -11.217592
2882 2882 19.461669
2883 2 -4.550377
2883 2731 -4.054065
2883 2883 18.653143
2883 2884 -11.209744
2883 2885 2.161044
2884 2 -0.551151
2884 6 -0.013755
2884 2883 -10.314158
2884 2884 23.509196
2884 2885 -11.630132
2885 2 -8.623576
2885 2883 1.350235
2885 2884 -11.213749
2885 2885 19.48709
2886 2 -4.569827
2886 2735 -4.054065
2886 2886 18.708933
2886 2887 -11.217511
2886 2888 2.13247
2887 2 -0.549773
2887 6 -0.013755
2887 2886 -10.377171
2887 2887 23.520075
2887 2888 -11.579376
2888 2 -8.624301
2888 2886 1.380224
2888 2887 -11.217592
2888 2888 19.461669
2889 2 -4.550377
2889 2731 -4.054065
2889 2889 18.653143
2889 2890 -11.209744
2889 2891 2.161044
2890 2 -0.551151
2890 6 -0.013755
2890 2889 -10.314158
2890 2890 23.509196
2890 2891 -11.630132
2891 2 -8.623576
2891 2889 1.350235
2891 2890 -11.213749
2891 2891 19.48709
2892 2 -4.569827
2892 2735 -4.054065
2892 2892 18.708933
2892 2893 -11.217511
2892 2894 2.13247
2893 2 -0.549773
2893 6 -0.013755
2893 2892 -10.377171
2893 2893 23.520075
2893 2894 -11.579376
2894 2 -8.624301
2894 2892 1.380224
2894 2893 -11.217592
2894 2894 19.461669
2895 2 -4.550377
2895 2731 -4.054065
2895 2895 18.653143
2895 2896 -11.209744
2895 2897 2.161044
2896 2 -0.551151
2896 6 -0.013755
2896 2895 -10.314158
2896 2896 23.509196
2896 2897 -11.630132
2897 2 -8.623576
2897 2895 1.350235
2897 2896 -11.213749
2897 2897 19.48709
2898 2 -4.569827
2898 2735 -4.054065
2898 2898 18.708933
2898 2899 -11.217511
2898 2900 2.13247
2899 2 -0.549773
2899 6 -0.013755
2899 2898 -10.377171
2899 2899 23.520075
2899 2900 -11.579376
2900 2 -8.624301
2900 2898 1.380224
2900 2899 -11.217592
2900 2900 19.461669
2901 2 -4.550377
2901 2731 -4.054065
2901 2901 18.653143
2901 2902 -11.209744
2901 2903 2.161044
2902 2 -0.551151
2902 6 -0.013755
2902 2901 -10.314158
2902 2902 23.509196
2902 2903 -11.630132
2903 2 -8.623576
2903 2901 1.350235
2903 2902 -11.213749
2903 2903 19.48709
2904 2 -4.569827
2904 2735 -4.054065
2904 2904 18.708933
2904 2905 -11.217511
2904 2906 2.13247
2905 2 -0.549773
2905 6 -0.013755
2905 2904 -10.377171
2905 2905 23.520075
2905 2906 -11.579376
2906 2 -8.624301
2906 2904 1.380224
2906 2905 -11.217592
2906 2906 19.461669
2907 2 -4.550377
2907 2731 -4.054065
2907 2907 18.653143
2907 2908 -11.209744
2907 2909 2.161044
2908 2 -0.551151
2908 6 -0.013755
2908 2907 -10.314158
2908 2908 23.509196
2908 2909 -11.630132
2909 2 -8.623576
2909 2907 1.350235
2909 2908 -11.213749
2909 2909 19.48709
2910 2 -4.569827
2910 2735 -4.054065
2910 2910 18.708933
2910 2911 -11.217511
2910 2912 2.13247
2911 2 -0.549773
2911 6 -0.013755
2911 2910 -10.377171
2911 2911 23.520075
2911 2912 -11.579376
2912 2 -8.624301
2912 2910 1.380224
2912 2911 -11.217592
2912 2912 19.461669
2913 2 -4.550377
2913 2731 -4.054065
2913 2913 18.653143
2913 2914 -11.209744
2913 2915 2.161044
2914 2 -0.551151
2914 6 -0.013755
2914 2913 -10.314158
2914 2914 23.509196
2914 2915 -11.630132
2915 2 -8.623576
2915 2913 1.350235
2915 2914 -11.213749
2915 2915 19.48709
2916 2 -4.569827
2916 2735 -4.054065
2916 2916 18.708933
2916 2917 -11.217511
2916 2918 2.13247
2917 2 -0.549773
2917 6 -0.013755
2917 2916 -10.377171
2917 2917 23.520075
2917 2918 -11.579376
2918 2 -8.624301
2918 2916 1.380224
2918 2917 -11.217592
2918 2918 19.461669
2919 2 -4.550377
2919 2731 -4.054065
2919 2919 18.653143
2919 2920 -11.209744
2919 2921 2.161044
2920 2 -0.551151
2920 6 -0.013755
2920 2919 -10.314158
2920 2920 23.509196
2920 2921 -11.630132
2921 2 -8.623576
2921 2919 1.350235
2921 2920 -11.213749
2921 2921 19.48709
2922 2 -4.569827
2922 2735 -4.054065
2922 2922 18.708933
2922 2923 -11.217511
2922 2924 2.13247
2923 2 -0.549773
2923 6 -0.013755
2923 2922 -10.377171
2923 2923 23.520075
2923 2924 -11.579376
2924 2 -8.624301
2924 2922 1.380224
2924 2923 -11.217592
2924 2924 19.461669
2925 2 -4.550377
2925 2731 -4.054065
2925 2925 18.653143
2925 2926 -11.209744
2925 2927 2.161044
2926 2 -0.551151
2926 6 -0.013755
2926 2925 -10.314158
2926 2926 23.509196
2926 2927 -11.630132
2927 2 -8.623576
2927 2925 1.350235
2927 2926 -11.213749
2927 2927 19.48709
2928 2 -4.569827
2928 2735 -4.054065
2928 2928 18.708933
2928 2929 -11.217511
2928 2930 2.13247
2929 2 -0.549773
2929 6 -0.013755
2929 2928 -10.377171
2929 2929 23.520075
2929 2930 -11.579376
2930 2 -8.624301
2930 2928 1.380224
2930 2929 -11.217592
2930 2930 19.461669
2931 2 -4.550377
2931 2731 -4.054065
2931 2931 18.653143
2931 2932 -11.209744
2931 2933 2.161044
2932 2 -0.551151
2932 6 -0.013755
2932 2931 -10.314158
2932 2932 23.509196
2932 2933 -11.630132
2933 2 -8.623576
2933 2931 1.350235
2933 2932 -11.213749
2933 2933 19.48709
2934 2 -4.569827
2934 2735 -4.054065
2934 2934 18.708933
2934 2935 -11.217511
2934 2936 2.13247
2935 2 -0.549773
2935 6 -0.013755
2935 2934 -10.377171
2935 2935 23.520075
2935 2936 -11.579376
2936 2 -8.624301
2936 2934 1.380224
2936 2935 -11.217592
2936 2936 19.461669
2937 2 -4.550377
2937 2731 -4.054065
2937 2937 18.653143
2937 2938 -11.209744
2937 2939 2.161044
2938 2 -0.551151
2938 6 -0.013755
2938 2937 -10.314158
2938 2938 23.509196
2938 2939 -11.630132
2939 2 -8.623576
2939 2937 1.350235
2939 2938 -11.213749
2939 2939 19.48709
2940 2 -4.569827
2940 2735 -4.054065
2940 2940 18.708933
2940 2941 -11.217511
2940 2942 2.13247
2941 2 -0.549773
2941 6 -0.013755
2941 2940 -10.377171
2941 2941 23.520075
2941 2942 -11.579376
2942 2 -8.624301
2942 2940 1.380224
2942 2941 -11.217592
2942 2942 19.461669
2943 2 -4.550377
2943 2731 -4.054065
2943 2943 18.653143
2943 2944 -11.209744
2943 2945 2.161044
2944 2 -0.551151
2944 6 -0.013755
2944 2943 -10.314158
2944 2944 23.509196
2944 2945 -11.630132
2945 2 -8.623576
2945 2943 1.350235
2945 2944 -11.213749
2945 2945 19.48709
2946 2 -4.569827
2946 2735 -4.054065
2946 2946 18.708933
2946 2947 -11.217511
2946 2948 2.13247
2947 2 -0.549773
2947 6 -0.013755
2947 2946 -10.377171
2947 2947 23.520075
2947 2948 -11.579376
2948 2 -8.624301
2948 2946 1.380224
2948 2947 -11.217592
2948 2948 19.461669
2949 2 -4.550377
2949 2731 -4.054065
2949 2949 18.653143
2949 2950 -11.209744
2949 2951 2.161044
2950 2 -0.551151
2950 6 -0.013755
2950 2949 -10.314158
2950 2950 23.509196
2950 2951 -11.630132
2951 2 -8.623576
2951 2949 1.350235
2951 2950 -11.213749
2951 2951 19.48709
2952 2 -4.569827
2952 2735 -4.054065
2952 2952 18.708933
2952 2953 -11.217511
2952 2954 2.13247
2953 2 -0.549773
2953 6 -0.013755
2953 2952 -10.377171
2953 2953 23.520075
2953 2954 -11.579376
2954 2 -8.624301
2954 2952 1.380224
2954 2953 -11.217592
2954 2954 19.461669
2955 2 -4.550377
2955 2731 -4.054065
2955 2955 18.653143
2955 2956 -11.209744
2955 2957 2.161044
2956 2 -0.551151
2956 6 -0.013755
2956 2955 -10.314158
2956 2956 23.509196
2956 2957 -11.630132
2957 2 -8.623576
2957 2955 1.350235
2957 2956 -11.213749
2957 2957 19.48709
2958 2 -4.569827
2958 2735 -4.054065
2958 2958 18.708933
2958 2959 -11.217511
2958 2960 2.13247
2959 2 -0.549773
2959 6 -0.013755
2959 2958 -10.377171
2959 2959 23.520075
2959 2960 -11.579376
2960 2 -8.624301
2960 2958 1.380224
2960 2959 -11.217592
2960 2960 19.461669
2961 2 -4.550377
2961 2731 -4.054065
2961 2961 18.653143
2961 2962 -11.209744
2961 2963 2.161044
2962 2 -0.551151
2962 6 -0.013755
2962 2961 -10.314158
2962 2962 23.509196
2962 2963 -11.630132
2963 2 -8.623576
2963 2961 1.350235
2963 2962 -11.213749
2963 2963 19.48709
2964 2 -4.569827
2964 2735 -4.054065
2964 2964 18.708933
2964 2965 -11.217511
2964 2966 2.13247
2965 2 -0.549773
2965 6 -0.013755
2965 2964 -10.377171
2965 2965 23.520075
2965 2966 -11.579376
2966 2 -8.624301
2966 2964 1.380224
2966 2965 -11.217592
2966 2966 19.461669
2967 2 -4.550377
2967 2731 -4.054065
2967 2967 18.653143
2967 2968 -11.209744
2967 2969 2.161044
2968 2 -0.551151
2968 6 -0.013755
2968 2967 -10.314158
2968 2968 23.509196
2968 2969 -11.630132
2969 2 -8.623576
2969 2967 1.350235
2969 2968 -11.213749
2969 2969 19.48709
2970 2 -4.569827
2970 2735 -4.054065
2970 2970 18.708933
2970 2971 -11.217511
2970 2972 2.13247
2971 2 -0.549773
2971 6 -0.013755
2971 2970 -10.377171
2971 2971 23.520075
2971 2972 -11.579376
2972 2 -8.624301
2972 2970 1.380224
2972 2971 -11.217592
2972 2972 19.461669
2973 2 -4.550377
2973 2731 -4.054065
2973 2973 18.653143
2973 2974 -11.209744
2973 2975 2.161044
2974 2 -0.551151
2974 6 -0.013755
2974 2973 -10.314158
2974 2974 23.509196
2974 2975 -11.630132
2975 2 -8.623576
2975 2973 1.350235
2975 2974 -11.213749
2975 2975 19.48709
2976 2 -4.569827
2976 2735 -4.054065
2976 2976 18.708933
2976 2977 -11.217511
2976 2978 2.13247
2977 2 -0.549773
2977 6 -0.013755
2977 2976 -10.377171
2977 2977 23.520075
2977 2978 -11.579376
2978 2 -8.624301
2978 2976 1.380224
2978 2977 -11.217592
2978 2978 19.461669
2979 2 -4.550377
2979 2731 -4.054065
2979 2979 18.653143
2979 2980 -11.209744
2979 2981 2.161044
2980 2 -0.551151
2980 6 -0.013755
2980 2979 -10.314158
2980 2980 23.509196
2980 2981 -11.630132
2981 2 -8.623576
2981 2979 1.350235
2981 2980 -11.213749
2981 2981 19.48709
2982 2 -4.569827
2982 2735 -4.054065
2982 2982 18.708933
2982 2983 -11.217511
2982 2984 2.13247
2983 2 -0.549773
2983 6 -0.013755
2983 2982 -10.377171
2983 2983 23.520075
2983 2984 -11.579376
2984 2 -8.624301
2984 2982 1.380224
2984 2983 -11.217592
2984 2984 19.461669
2985 2 -4.550377
2985 2731 -4.054065
2985 2985 18.653143
2985 2986 -11.209744
2985 2987 2.161044
2986 2 -0.551151
2986 6 -0.013755
2986 2985 -10.314158
2986 2986 23.509196
2986 2987 -11.630132
2987 2 -8.623576
2987 2985 1.350235
2987 2986 -11.213749
2987 2987 19.48709
2988 2 -4.569827
2988 2735 -4.054065
2988 2988 18.708933
2988 2989 -11.217511
2988 2990 2.13247
2989 2 -0.549773
2989 6 -0.013755
2989 2988 -10.377171
2989 2989 23.520075
2989 2990 -11.579376
2990 2 -8.624301
2990 2988 1.380224
2990 2989 -11.217592
2990 2990 19.461669
2991 2 -4.550377
2991 2731 -4.054065
2991 2991 18.653143
2991 2992 -11.209744
2991 2993 2.161044
2992 2 -0.551151
2992 6 -0.013755
2992 2991 -10.314158
2992 2992 23.509196
2992 2993 -11.630132
2993 2 -8.623576
2993 2991 1.350235
2993 2992 -11.213749
2993 2993 19.48709
2994 2 -4.569827
2994 2735 -4.054065
2994 2994 18.708933
2994 2995 -11.217511
2994 2996 2.13247
2995 2 -0.549773
2995 6 -0.013755
2995 2994 -10.377171
2995 2995 23.520075
2995 2996 -11.579376
2996 2 -8.624301
2996 2994 1.380224
2996 2995 -11.217592
2996 2996 19.461669
2997 2 -6.935914
2997 2731 -2.674898
2997 2997 19.659525
2997 2998 -11.209747
2997 2999 2.161034
2998 2 -0.551151
2998 6 -0.013755
2998 2997 -10.314179
2998 2998 23.5092
2998 2999 -11.630115
2999 2 -8.623576
2999 2997 1.350245
2999 2998 -11.213751
2999 2999 19.487082
3000 2 -6.965822
3000 2735 -2.674898
3000 3000 19.725762
3000 3001 -11.217511
3000 3002 2.13247
3001 2 -0.549773
3001 6 -0.013755
3001 3000 -10.377172
3001 3001 23.520075
3001 3002 -11.579375
3002 2 -8.624301
3002 3000 1.380224
3002 3001 -11.217592
3002 3002 19.461669
3003 2 -1.382753
3003 2545 -1.216214
3003 3003 6.280257
3003 3004 -3.35039
3003 3005 0.6691
3004 2 -0.158949
3004 2544 -0.045872
3004 3003 -3.038234
3004 3004 7.767109
3004 3005 -3.524054
3005 2 -2.079281
3005 2731 -0.802472
3005 3003 0.363897
3005 3004 -3.356555
3005 3005 6.87441
3006 2 -0.985352
3006 2544 -1.216214
3006 3006 4.877379
3006 3007 -1.685743
3006 3008 0.00993
3007 2 -0.337223
3007 2545 -0.045872
3007 3006 -1.6628
3007 3007 4.936465
3007 3008 -1.890571
3008 2 -2.024455
3008 2735 -0.802472
3008 3006 -0.000675
3008 3007 -1.885232
3008 3008 5.712833
3009 2 -1.382755
3009 2545 -1.216214
3009 3009 6.280226
3009 3010 -3.35038
3009 3011 0.669123
3010 2 -0.158956
3010 2544 -0.045872
3010 3009 -3.038182
3010 3010 7.767093
3010 3011 -3.524084
3011 2 -1.474793
3011 2731 -1.216214
3011 3009 0.363872
3011 3010 -3.356548
3011 3011 6.683683
3012 2 -0.985352
3012 2544 -1.216214
3012 3012 4.877379
3012 3013 -1.685744
3012 3014 0.009931
3013 2 -0.337223
3013 2545 -0.045872
3013 3012 -1.6628
3013 3013 4.936468
3013 3014 -1.890573
3014 2 -1.417407
3014 2735 -1.216214
3014 3012 -0.000675
3014 3013 -1.885233
3014 3014 5.519529
3015 2 -1.382755
3015 2545 -1.216214
3015 3015 6.280226
3015 3016 -3.35038
3015 3017 0.669123
3016 2 -0.158956
3016 2544 -0.045872
3016 3015 -3.038182
3016 3016 7.767093
3016 3017 -3.524084
3017 2 -1.474793
3017 2731 -1.216214
3017 3015 0.363872
3017 3016 -3.356548
3017 3017 6.683683
3018 2 -0.985352
3018 2544 -1.216214
3018 3018 4.877379
3018 3019 -1.685744
3018 3020 0.009931
3019 2 -0.337223
3019 2545 -0.045872
3019 3018 -1.6628
3019 3019 4.936468
3019 3020 -1.890573
3020 2 -1.417407
3020 2735 -1.216214
3020 3018 -0.000675
3020 3019 -1.885233
3020 3020 5.519529
3021 2 -1.382755
3021 2545 -1.216214
3021 3021 6.280226
3021 3022 -3.35038
3021 3023 0.669123
3022 2 -0.158956
3022 2544 -0.045872
3022 3021 -3.038182
3022 3022 7.767093
3022 3023 -3.524084
3023 2 -1.474793
3023 2731 -1.216214
3023 3021 0.363872
3023 3022 -3.356548
3023 3023 6.683683
3024 2 -0.985352
3024 2544 -1.216214
3024 3024 4.877379
3024 3025 -1.685744
3024 3026 0.009931
3025 2 -0.337223
3025 2545 -0.045872
3025 3024 -1.6628
3025 3025 4.936468
3025 3026 -1.890573
3026 2 -1.417407
3026 2735 -1.216214
3026 3024 -0.000675
3026 3025 -1.885233
3026 3026 5.519529
3027 2 -1.382755
3027 2545 -1.216214
3027 3027 6.280226
3027 3028 -3.35038
3027 3029 0.669123
3028 2 -0.158956
3028 2544 -0.045872
3028 3027 -3.038182
3028 3028 7.767093
3028 3029 -3.524084
3029 2 -1.474793
3029 2731 -1.216214
3029 3027 0.363872
3029 3028 -3.356548
3029 3029 6.683683
3030 2 -0.985352
3030 2544 -1.216214
3030 3030 4.877379
3030 3031 -1.685744
3030 3032 0.009931
3031 2 -0.337223
3031 2545 -0.045872
3031 3030 -1.6628
3031 3031 4.936468
3031 3032 -1.890573
3032 2 -1.417407
3032 2735 -1.216214
3032 3030 -0.000675
3032 3031 -1.885233
3032 3032 5.519529
3033 2 -1.382753
3033 2545 -1.216214
3033 3033 6.280258
3033 3034 -3.350391
3033 3035 0.669099
3034 2 -0.158949
3034 2544 -0.045872
3034 3033 -3.038237
3034 3034 7.767109
3034 3035 -3.524052
3035 2 -2.414524
3035 2731 -0.789478
3035 3033 0.363898
3035 3034 -3.356555
3035 3035 7.196659
3036 2 -0.985352
3036 2544 -1.216214
3036 3036 4.877379
3036 3037 -1.685743
3036 3038 0.00993
3037 2 -0.337223
3037 2545 -0.045872
3037 3036 -1.6628
3037 3037 4.936465
3037 3038 -1.890571
3038 2 -2.361752
3038 2735 -0.789478
3038 3036 -0.000675
3038 3037 -1.885232
3038 3038 6.037136
3039 2 -0.732214
3039 2545 -0.608106
3039 3039 3.269613
3039 3040 -0.940916
3039 3041 0.011623
3040 2 -0.161095
3040 2540 -0.091743
3040 3039 -0.923163
3040 3040 3.140615
3040 3041 -0.964613
3041 2 -1.69942
3041 3039 -0.000723
3041 3040 -0.954683
3041 3041 3.654826
3042 2 -0.732214
3042 2545 -0.608106
3042 3042 3.269613
3042 3043 -0.940916
3042 3044 0.011623
3043 2 -0.161095
3043 2540 -0.091743
3043 3042 -0.923163
3043 3043 3.140615
3043 3044 -0.964613
3044 2 -1.69942
3044 3042 -0.000723
3044 3043 -0.954683
3044 3044 3.654826
3045 2 -0.554387
3045 2544 -0.608106
3045 3045 3.045796
3045 3046 -1.311844
3045 3047 0.428541
3046 2 -0.112374
3046 2542 -0.091743
3046 3045 -0.869138
3046 3046 3.964992
3046 3047 -1.891738
3047 2 -1.719143
3047 3045 -0.027764
3047 3046 -1.537566
3047 3047 4.284473
3048 2 -0.554387
3048 2544 -0.608106
3048 3048 3.045796
3048 3049 -1.311844
3048 3050 0.428541
3049 2 -0.112374
3049 2542 -0.091743
3049 3048 -0.869138
3049 3049 3.964992
3049 3050 -1.891738
3050 2 -1.719143
3050 3048 -0.027764
3050 3049 -1.537566
3050 3050 4.284473
3051 2 -2.477886
3051 2639 -2.837837
3051 3051 10.363175
3051 3052 -4.062653
3051 3053 0.015201
3052 2 -0.939345
3052 2545 -0.021413
3052 3051 -4.014137
3052 3052 10.369327
3052 3053 -4.394432
3053 2 -7.025072
3053 3051 -0.000959
3053 3052 -4.387895
3053 3053 12.413927
3054 2 -2.454355
3054 2643 -2.837837
3054 3054 10.859897
3054 3055 -6.961298
3054 3056 2.393593
3055 2 -0.556123
3055 2544 -0.021413
3055 3054 -4.596886
3055 3055 15.95508
3055 3056 -9.780657
3056 2 -7.153277
3056 3054 -0.034441
3056 3055 -7.803335
3056 3056 15.991053
3057 2 -2.477886
3057 2639 -2.837837
3057 3057 10.363175
3057 3058 -4.062654
3057 3059 0.015203
3058 2 -0.939345
3058 2545 -0.021413
3058 3057 -4.014136
3058 3058 10.369331
3058 3059 -4.394436
3059 2 -5.932171
3059 3057 -0.000959
3059 3058 -4.387898
3059 3059 11.321029
3060 2 -2.454366
3060 2643 -2.837837
3060 3060 10.859898
3060 3061 -6.961288
3060 3062 2.393594
3061 2 -0.556162
3061 2544 -0.021413
3061 3060 -4.59689
3061 3061 15.955068
3061 3062 -9.780603
3062 2 -6.061218
3062 3060 -0.034438
3062 3061 -7.803331
3062 3062 14.898987
3063 2 -2.477886
3063 2639 -2.837837
3063 3063 10.363175
3063 3064 -4.062654
3063 3065 0.015203
3064 2 -0.939345
3064 2545 -0.021413
3064 3063 -4.014136
3064 3064 10.369331
3064 3065 -4.394436
3065 2 -5.932171
3065 3063 -0.000959
3065 3064 -4.387898
3065 3065 11.321029
3066 2 -2.454366
3066 2643 -2.837837
3066 3066 10.859898
3066 3067 -6.961288
3066 3068 2.393594
3067 2 -0.556162
3067 2544 -0.021413
3067 3066 -4.59689
3067 3067 15.955068
3067 3068 -9.780603
3068 2 -6.061218
3068 3066 -0.034438
3068 3067 -7.803331
3068 3068 14.898987
3069 2 -2.477886
3069 2639 -2.837837
3069 3069 10.363175
3069 3070 -4.062653
3069 3071 0.015201
3070 2 -0.939345
3070 2545 -0.021413
3070 3069 -4.014137
3070 3070 10.369327
3070 3071 -4.394432
3071 2 -7.025072
3071 3069 -0.000959
3071 3070 -4.387895
3071 3071 12.413927
3072 2 -2.454355
3072 2643 -2.837837
3072 3072 10.859897
3072 3073 -6.961298
3072 3074 2.393593
3073 2 -0.556123
3073 2544 -0.021413
3073 3072 -4.596886
3073 3073 15.95508
3073 3074 -9.780657
3074 2 -7.153277
3074 3072 -0.034441
3074 3073 -7.803335
3074 3074 15.991053
3075 2 -2.518404
3075 18 -3.162165
3075 3075 10.977434
3075 3076 -6.926349
3075 3077 2.629484
3076 2 -0.696973
3076 2639 -0.019231
3076 3075 -4.213172
3076 3076 16.762418
3076 3077 -10.833042
3077 2 -7.928408
3077 3075 -0.164391
3077 3076 -8.557994
3077 3077 17.650792
3078 2 -3.209653
3078 17 -3.162165
3078 3078 13.542937
3078 3079 -8.748271
3078 3080 2.577152
3079 2 -0.555778
3079 2643 -0.019231
3079 3078 -6.631185
3079 3079 18.979239
3079 3080 -10.773045
3080 2 -7.978637
3080 3078 0.430224
3080 3079 -9.086409
3080 3080 17.634822
3081 2 -2.518408
3081 18 -3.162165
3081 3081 10.977436
3081 3082 -6.926352
3081 3083 2.62949
3082 2 -0.696986
3082 2639 -0.019231
3082 3081 -4.213175
3082 3082 16.762427
3082 3083 -10.833036
3083 2 -6.720735
3083 3081 -0.164389
3083 3082 -8.558
3083 3083 16.443124
3084 2 -3.209655
3084 17 -3.162165
3084 3084 13.542847
3084 3085 -8.748195
3084 3086 2.577168
3085 2 -0.555794
3085 2643 -0.019231
3085 3084 -6.631054
3085 3085 18.979132
3085 3086 -10.773054
3086 2 -6.770954
3086 3084 0.430176
3086 3085 -9.086371
3086 3086 16.42715
3087 2 -2.518408
3087 18 -3.162165
3087 3087 10.977436
3087 3088 -6.926352
3087 3089 2.62949
3088 2 -0.696986
3088 2639 -0.019231
3088 3087 -4.213175
3088 3088 16.762427
3088 3089 -10.833036
3089 2 -6.720735
3089 3087 -0.164389
3089 3088 -8.558
3089 3089 16.443124
3090 2 -3.209655
3090 17 -3.162165
3090 3090 13.542847
3090 3091 -8.748195
3090 3092 2.577168
3091 2 -0.555794
3091 2643 -0.019231
3091 3090 -6.631054
3091 3091 18.979132
3091 3092 -10.773054
3092 2 -6.770954
3092 3090 0.430176
3092 3091 -9.086371
3092 3092 16.42715
3093 2 -2.518408
3093 18 -3.162165
3093 3093 10.977436
3093 3094 -6.926352
3093 3095 2.62949
3094 2 -0.696986
3094 2639 -0.019231
3094 3093 -4.213175
3094 3094 16.762427
3094 3095 -10.833036
3095 2 -6.720735
3095 3093 -0.164389
3095 3094 -8.558
3095 3095 16.443124
3096 2 -3.209655
3096 17 -3.162165
3096 3096 13.542847
3096 3097 -8.748195
3096 3098 2.577168
3097 2 -0.555794
3097 2643 -0.019231
3097 3096 -6.631054
3097 3097 18.979132
3097 3098 -10.773054
3098 2 -6.770954
3098 3096 0.430176
3098 3097 -9.086371
3098 3098 16.42715
3099 2 -2.518408
3099 18 -3.162165
3099 3099 10.977436
3099 3100 -6.926352
3099 3101 2.62949
3100 2 -0.696986
3100 2639 -0.019231
3100 3099 -4.213175
3100 3100 16.762427
3100 3101 -10.833036
3101 2 -6.720735
3101 3099 -0.164389
3101 3100 -8.558
3101 3101 16.443124
3102 2 -3.209655
3102 17 -3.162165
3102 3102 13.542847
3102 3103 -8.748195
3102 3104 2.577168
3103 2 -0.555794
3103 2643 -0.019231
3103 3102 -6.631054
3103 3103 18.979132
3103 3104 -10.773054
3104 2 -6.770954
3104 3102 0.430176
3104 3103 -9.086371
3104 3104 16.42715
3105 2 -2.518408
3105 18 -3.162165
3105 3105 10.977436
3105 3106 -6.926352
3105 3107 2.62949
3106 2 -0.696986
3106 2639 -0.019231
3106 3105 -4.213175
3106 3106 16.762427
3106 3107 -10.833036
3107 2 -6.720735
3107 3105 -0.164389
3107 3106 -8.558
3107 3107 16.443124
3108 2 -3.209655
3108 17 -3.162165
3108 3108 13.542847
3108 3109 -8.748195
3108 3110 2.577168
3109 2 -0.555794
3109 2643 -0.019231
3109 3108 -6.631054
3109 3109 18.979132
3109 3110 -10.773054
3110 2 -6.770954
3110 3108 0.430176
3110 3109 -9.086371
3110 3110 16.42715
3111 2 -2.518408
3111 18 -3.162165
3111 3111 10.977436
3111 3112 -6.926352
3111 3113 2.62949
3112 2 -0.696986
3112 2639 -0.019231
3112 3111 -4.213175
3112 3112 16.762427
3112 3113 -10.833036
3113 2 -6.720735
3113 3111 -0.164389
3113 3112 -8.558
3113 3113 16.443124
3114 2 -3.209655
3114 17 -3.162165
3114 3114 13.542847
3114 3115 -8.748195
3114 3116 2.577168
3115 2 -0.555794
3115 2643 -0.019231
3115 3114 -6.631054
3115 3115 18.979132
3115 3116 -10.773054
3116 2 -6.770954
3116 3114 0.430176
3116 3115 -9.086371
3116 3116 16.42715
3117 2 -2.518408
3117 18 -3.162165
3117 3117 10.977436
3117 3118 -6.926352
3117 3119 2.62949
3118 2 -0.696986
3118 2639 -0.019231
3118 3117 -4.213175
3118 3118 16.762427
3118 3119 -10.833036
3119 2 -6.720735
3119 3117 -0.164389
3119 3118 -8.558
3119 3119 16.443124
3120 2 -3.209655
3120 17 -3.162165
3120 3120 13.542847
3120 3121 -8.748195
3120 3122 2.577168
3121 2 -0.555794
3121 2643 -0.019231
3121 3120 -6.631054
3121 3121 18.979132
3121 3122 -10.773054
3122 2 -6.770954
3122 3120 0.430176
3122 3121 -9.086371
3122 3122 16.42715
3123 2 -2.518408
3123 18 -3.162165
3123 3123 10.977436
3123 3124 -6.926352
3123 3125 2.62949
3124 2 -0.696986
3124 2639 -0.019231
3124 3123 -4.213175
3124 3124 16.762427
3124 3125 -10.833036
3125 2 -6.720735
3125 3123 -0.164389
3125 3124 -8.558
3125 3125 16.443124
3126 2 -3.209655
3126 17 -3.162165
3126 3126 13.542847
3126 3127 -8.748195
3126 3128 2.577168
3127 2 -0.555794
3127 2643 -0.019231
3127 3126 -6.631054
3127 3127 18.979132
3127 3128 -10.773054
3128 2 -6.770954
3128 3126 0.430176
3128 3127 -9.086371
3128 3128 16.42715
3129 2 -2.518408
3129 18 -3.162165
3129 3129 10.977436
3129 3130 -6.926352
3129 3131 2.62949
3130 2 -0.696986
3130 2639 -0.019231
3130 3129 -4.213175
3130 3130 16.762427
3130 3131 -10.833036
3131 2 -6.720735
3131 3129 -0.164389
3131 3130 -8.558
3131 3131 16.443124
3132 2 -3.209655
3132 17 -3.162165
3132 3132 13.542847
3132 3133 -8.748195
3132 3134 2.577168
3133 2 -0.555794
3133 2643 -0.019231
3133 3132 -6.631054
3133 3133 18.979132
3133 3134 -10.773054
3134 2 -6.770954
3134 3132 0.430176
3134 3133 -9.086371
3134 3134 16.42715
3135 2 -4.113942
3135 18 -2.052634
3135 3135 11.463453
3135 3136 -6.926368
3135 3137 2.629491
3136 2 -0.696984
3136 2639 -0.019231
3136 3135 -4.213191
3136 3136 16.762444
3136 3137 -10.833038
3137 2 -6.720737
3137 3135 -0.164389
3137 3136 -8.558
3137 3137 16.443125
3138 2 -5.247006
3138 17 -2.052634
3138 3138 14.471275
3138 3139 -8.748657
3138 3140 2.577022
3139 2 -0.555761
3139 2643 -0.019231
3139 3138 -6.63193
3139 3139 18.979766
3139 3140 -10.772844
3140 2 -6.770967
3140 3138 0.430477
3140 3139 -9.086584
3140 3140 16.427073
3141 1 -1.747677
3141 5 -15.744631
3141 2540 -0.11236
3141 3141 18.604668
3142 1 -1.806949
3142 5 -17.42041
3142 2542 -0.11236
3142 3142 20.339719
3143 1 -1.747677
3143 5 -15.744631
3143 2540 -0.11236
3143 3143 18.604668
3144 1 -1.806949
3144 5 -17.42041
3144 2542 -0.11236
3144 3144 20.339719
3145 1 -1.747677
3145 5 -15.744631
3145 2540 -0.11236
3145 3145 18.604668
3146 1 -1.806949
3146 5 -17.42041
3146 2542 -0.11236
3146 3146 20.339719
3147 1 -1.736838
3147 5 -14.451304
3147 2545 -0.11236
3147 3147 17.300501
3148 1 -1.803236
3148 5 -17.420847
3148 2544 -0.11236
3148 3148 20.336442
3149 1 -1.736838
3149 5 -14.451304
3149 2545 -0.11236
3149 3149 17.300501
3150 1 -1.803236
3150 5 -17.420847
3150 2544 -0.11236
3150 3150 20.336442
3151 1 -1.736838
3151 5 -14.451304
3151 2545 -0.11236
3151 3151 17.300501
3152 1 -1.803236
3152 5 -17.420847
3152 2544 -0.11236
3152 3152 20.336442
3153 2540 -1.020408
3153 3153 2.020408
3153 7556 -1.0
3154 1 -19.606396
3154 2545 -27.7502
3154 3154 48.356596
3155 1 -19.606396
3155 2540 -27.7502
3155 3155 48.356596
3156 2542 -1.020408
3156 3156 2.020408
3156 7555 -1.0
3157 1 -19.606396
3157 2544 -27.7502
3157 3157 48.356596
3158 1 -19.606396
3158 2542 -27.7502
3158 3158 48.356596
3159 2543 -4.385965
3159 3159 5.385965
3159 7553 -1.0
3160 2546 -4.385965
3160 3160 5.385965
3160 7552 -1.0
3161 3161 5.385965
3161 3162 -4.385965
3161 7551 -1.0
3162 1 -16.8765
3162 2 -9.244
3162 4 -1.0705
3162 5 -2.0275
3162 3161 -4.385965
3162 3162 155.606038
3162 3167 -34.3644
3162 3169 -57.346
3162 3662 -0.091743
3162 3665 -0.091743
3162 3763 -0.11236
3162 3765 -0.11236
3162 3767 -0.11236
3162 3775 -1.020408
3162 3777 -27.7502
3163 3163 5.385965
3163 3164 -4.385965
3163 7554 -1.0
3164 1 -16.882
3164 2 -9.139
3164 4 -1.0705
3164 5 -2.094
3164 3163 -4.385965
3164 3164 155.555538
3164 3166 -34.3639
3164 3170 -57.329
3164 3668 -0.091743
3164 3671 -0.091743
3164 3764 -0.11236
3164 3766 -0.11236
3164 3768 -0.11236
3164 3778 -1.020408
3164 3780 -27.7502
3165 3165 5.385965
3165 3781 -4.385965
3165 7554 1.0
3166 1 -41.117
3166 2 -16.5255
3166 4 -25.0715
3166 5 -2.03
3166 6 -0.315
3166 3164 -34.3639
3166 3166 256.827596
3166 3167 -12.9405
3166 3170 -63.223
3166 3172 -0.045872
3166 3174 -0.789478
3166 3178 -0.045872
3166 3180 -1.216214
3166 3184 -0.045872
3166 3186 -1.216214
3166 3190 -0.045872
3166 3192 -1.216214
3166 3196 -0.045872
3166 3198 -1.216214
3166 3202 -0.045872
3166 3204 -1.216214
3166 3208 -0.045872
3166 3210 -1.216214
3166 3214 -0.045872
3166 3216 -1.216214
3166 3220 -0.045872
3166 3222 -1.216214
3166 3226 -0.045872
3166 3228 -1.216214
3166 3232 -0.045872
3166 3234 -1.216214
3166 3238 -0.045872
3166 3240 -1.216214
3166 3244 -0.045872
3166 3246 -1.216214
3166 3250 -0.045872
3166 3252 -1.216214
3166 3256 -0.045872
3166 3258 -1.216214
3166 3265 -1.522
3166 3353 -0.4245
3166 3357 -2.8285
3166 3626 -0.045872
3166 3628 -1.216214
3166 3632 -0.045872
3166 3634 -1.216214
3166 3638 -0.045872
3166 3640 -1.216214
3166 3644 -0.045872
3166 3646 -1.216214
3166 3650 -0.045872
3166 3652 -1.216214
3166 3656 -0.045872
3166 3658 -1.216214
3166 3667 -0.608106
3166 3670 -0.608106
3166 3677 -0.021413
3166 3683 -0.021413
3166 3689 -0.021413
3166 3695 -0.021413
3166 3770 -0.11236
3166 3772 -0.11236
3166 3774 -0.11236
3166 3779 -27.7502
3166 7549 1.0
3166 7553 1.0
3167 1 -41.1965
3167 2 -16.6505
3167 4 -25.0385
3167 5 -1.968
3167 6 -0.31
3167 3162 -34.3644
3167 3166 -12.9405
3167 3167 256.913596
3167 3169 -63.2005
3167 3171 -0.789478
3167 3175 -0.045872
3167 3177 -1.216214
3167 3181 -0.045872
3167 3183 -1.216214
3167 3187 -0.045872
3167 3189 -1.216214
3167 3193 -0.045872
3167 3195 -1.216214
3167 3199 -0.045872
3167 3201 -1.216214
3167 3205 -0.045872
3167 3207 -1.216214
3167 3211 -0.045872
3167 3213 -1.216214
3167 3217 -0.045872
3167 3219 -1.216214
3167 3223 -0.045872
3167 3225 -1.216214
3167 3229 -0.045872
3167 3231 -1.216214
3167 3235 -0.045872
3167 3237 -1.216214
3167 3241 -0.045872
3167 3243 -1.216214
3167 3247 -0.045872
3167 3249 -1.216214
3167 3253 -0.045872
3167 3255 -1.216214
3167 3259 -0.045872
3167 3261 -1.522
3167 3353 -2.832
3167 3357 -0.4245
3167 3625 -1.216214
3167 3629 -0.045872
3167 3631 -1.216214
3167 3635 -0.045872
3167 3637 -1.216214
3167 3641 -0.045872
3167 3643 -1.216214
3167 3647 -0.045872
3167 3649 -1.216214
3167 3653 -0.045872
3167 3655 -1.216214
3167 3659 -0.045872
3167 3661 -0.608106
3167 3664 -0.608106
3167 3674 -0.021413
3167 3680 -0.021413
3167 3686 -0.021413
3167 3692 -0.021413
3167 3769 -0.11236
3167 3771 -0.11236
3167 3773 -0.11236
3167 3776 -27.7502
3167 7550 1.0
3167 7552 1.0
3168 3168 5.385965
3168 3782 -4.385965
3168 7551 1.0
3169 1 -132.8115
3169 2 -194.2496
3169 4 -52.4615
3169 5 -55.2875
3169 15 -0.4625
3169 16 -0.4625
3169 3162 -57.346
3169 3167 -63.2005
3169 3169 557.2816
3170 1 -132.228
3170 2 -197.5526
3170 4 -52.4615
3170 5 -55.5525
3170 15 -0.531
3170 16 -0.531
3170 3164 -57.329
3170 3166 -63.223
3170 3170 560.4086
3171 4 -1.959124
3171 3167 -0.789478
3171 3171 5.245519
3171 3172 -2.288703
3171 3173 0.791786
3172 4 -0.385342
3172 3166 -0.045872
3172 3171 -1.505333
3172 3172 6.488794
3172 3173 -3.552247
3173 4 -2.911178
3173 3171 -0.069334
3173 3172 -2.903647
3173 3173 6.884159
3174 4 -2.470453
3174 3166 -0.789478
3174 3174 6.693786
3174 3175 -3.193355
3174 3176 0.7595
3175 4 -0.21308
3175 3167 -0.045872
3175 3174 -2.614397
3175 3175 7.526696
3175 3176 -3.653347
3176 4 -2.975375
3176 3174 0.226458
3176 3175 -3.238723
3176 3176 6.987641
3177 4 -1.202546
3177 3167 -1.216214
3177 3177 4.915678
3177 3178 -2.288703
3177 3179 0.791786
3178 4 -0.385342
3178 3166 -0.045872
3178 3177 -1.505333
3178 3178 6.488794
3178 3179 -3.552247
3179 4 -2.911178
3179 3177 -0.069334
3179 3178 -2.903647
3179 3179 6.884159
3180 4 -1.543338
3180 3166 -1.216214
3180 3180 6.193331
3180 3181 -3.193312
3180 3182 0.759532
3181 4 -0.21309
3181 3167 -0.045872
3181 3180 -2.614293
3181 3181 7.526643
3181 3182 -3.653389
3182 4 -2.975369
3182 3180 0.22641
3182 3181 -3.2387
3182 3182 6.98766
3183 4 -1.202546
3183 3167 -1.216214
3183 3183 4.915678
3183 3184 -2.288703
3183 3185 0.791786
3184 4 -0.385342
3184 3166 -0.045872
3184 3183 -1.505333
3184 3184 6.488794
3184 3185 -3.552247
3185 4 -2.911178
3185 3183 -0.069334
3185 3184 -2.903647
3185 3185 6.884159
3186 4 -1.543338
3186 3166 -1.216214
3186 3186 6.193331
3186 3187 -3.193312
3186 3188 0.759532
3187 4 -0.21309
3187 3167 -0.045872
3187 3186 -2.614293
3187 3187 7.526643
3187 3188 -3.653389
3188 4 -2.975369
3188 3186 0.22641
3188 3187 -3.2387
3188 3188 6.98766
3189 4 -1.202546
3189 3167 -1.216214
3189 3189 4.915678
3189 3190 -2.288703
3189 3191 0.791786
3190 4 -0.385342
3190 3166 -0.045872
3190 3189 -1.505333
3190 3190 6.488794
3190 3191 -3.552247
3191 4 -2.911178
3191 3189 -0.069334
3191 3190 -2.903647
3191 3191 6.884159
3192 4 -1.543338
3192 3166 -1.216214
3192 3192 6.193331
3192 3193 -3.193312
3192 3194 0.759532
3193 4 -0.21309
3193 3167 -0.045872
3193 3192 -2.614293
3193 3193 7.526643
3193 3194 -3.653389
3194 4 -2.975369
3194 3192 0.22641
3194 3193 -3.2387
3194 3194 6.98766
3195 4 -1.202546
3195 3167 -1.216214
3195 3195 4.915678
3195 3196 -2.288703
3195 3197 0.791786
3196 4 -0.385342
3196 3166 -0.045872
3196 3195 -1.505333
3196 3196 6.488794
3196 3197 -3.552247
3197 4 -2.911178
3197 3195 -0.069334
3197 3196 -2.903647
3197 3197 6.884159
3198 4 -1.543338
3198 3166 -1.216214
3198 3198 6.193331
3198 3199 -3.193312
3198 3200 0.759532
3199 4 -0.21309
3199 3167 -0.045872
3199 3198 -2.614293
3199 3199 7.526643
3199 3200 -3.653389
3200 4 -2.975369
3200 3198 0.22641
3200 3199 -3.2387
3200 3200 6.98766
3201 4 -1.202546
3201 3167 -1.216214
3201 3201 4.915678
3201 3202 -2.288703
3201 3203 0.791786
3202 4 -0.385342
3202 3166 -0.045872
3202 3201 -1.505333
3202 3202 6.488794
3202 3203 -3.552247
3203 4 -2.911178
3203 3201 -0.069334
3203 3202 -2.903647
3203 3203 6.884159
3204 4 -1.543338
3204 3166 -1.216214
3204 3204 6.193331
3204 3205 -3.193312
3204 3206 0.759532
3205 4 -0.21309
3205 3167 -0.045872
3205 3204 -2.614293
3205 3205 7.526643
3205 3206 -3.653389
3206 4 -2.975369
3206 3204 0.22641
3206 3205 -3.2387
3206 3206 6.98766
3207 4 -1.202546
3207 3167 -1.216214
3207 3207 4.915678
3207 3208 -2.288703
3207 3209 0.791786
3208 4 -0.385342
3208 3166 -0.045872
3208 3207 -1.505333
3208 3208 6.488794
3208 3209 -3.552247
3209 4 -2.911178
3209 3207 -0.069334
3209 3208 -2.903647
3209 3209 6.884159
3210 4 -1.543338
3210 3166 -1.216214
3210 3210 6.193331
3210 3211 -3.193312
3210 3212 0.759532
3211 4 -0.21309
3211 3167 -0.045872
3211 3210 -2.614293
3211 3211 7.526643
3211 3212 -3.653389
3212 4 -2.975369
3212 3210 0.22641
3212 3211 -3.2387
3212 3212 6.98766
3213 4 -1.202546
3213 3167 -1.216214
3213 3213 4.915678
3213 3214 -2.288703
3213 3215 0.791786
3214 4 -0.385342
3214 3166 -0.045872
3214 3213 -1.505333
3214 3214 6.488794
3214 3215 -3.552247
3215 4 -2.911178
3215 3213 -0.069334
3215 3214 -2.903647
3215 3215 6.884159
3216 4 -1.543338
3216 3166 -1.216214
3216 3216 6.193331
3216 3217 -3.193312
3216 3218 0.759532
3217 4 -0.21309
3217 3167 -0.045872
3217 3216 -2.614293
3217 3217 7.526643
3217 3218 -3.653389
3218 4 -2.975369
3218 3216 0.22641
3218 3217 -3.2387
3218 3218 6.98766
3219 4 -1.202546
3219 3167 -1.216214
3219 3219 4.915678
3219 3220 -2.288703
3219 3221 0.791786
3220 4 -0.385342
3220 3166 -0.045872
3220 3219 -1.505333
3220 3220 6.488794
3220 3221 -3.552247
3221 4 -2.911178
3221 3219 -0.069334
3221 3220 -2.903647
3221 3221 6.884159
3222 4 -1.543338
3222 3166 -1.216214
3222 3222 6.193331
3222 3223 -3.193312
3222 3224 0.759532
3223 4 -0.21309
3223 3167 -0.045872
3223 3222 -2.614293
3223 3223 7.526643
3223 3224 -3.653389
3224 4 -2.975369
3224 3222 0.22641
3224 3223 -3.2387
3224 3224 6.98766
3225 4 -1.202546
3225 3167 -1.216214
3225 3225 4.915678
3225 3226 -2.288703
3225 3227 0.791786
3226 4 -0.385342
3226 3166 -0.045872
3226 3225 -1.505333
3226 3226 6.488794
3226 3227 -3.552247
3227 4 -2.911178
3227 3225 -0.069334
3227 3226 -2.903647
3227 3227 6.884159
3228 4 -1.543338
3228 3166 -1.216214
3228 3228 6.193331
3228 3229 -3.193312
3228 3230 0.759532
3229 4 -0.21309
3229 3167 -0.045872
3229 3228 -2.614293
3229 3229 7.526643
3229 3230 -3.653389
3230 4 -2.975369
3230 3228 0.22641
3230 3229 -3.2387
3230 3230 6.98766
3231 4 -1.202546
3231 3167 -1.216214
3231 3231 4.915678
3231 3232 -2.288703
3231 3233 0.791786
3232 4 -0.385342
3232 3166 -0.045872
3232 3231 -1.505333
3232 3232 6.488794
3232 3233 -3.552247
3233 4 -2.911178
3233 3231 -0.069334
3233 3232 -2.903647
3233 3233 6.884159
3234 4 -1.543338
3234 3166 -1.216214
3234 3234 6.193331
3234 3235 -3.193312
3234 3236 0.759532
3235 4 -0.21309
3235 3167 -0.045872
3235 3234 -2.614293
3235 3235 7.526643
3235 3236 -3.653389
3236 4 -2.975369
3236 3234 0.22641
3236 3235 -3.2387
3236 3236 6.98766
3237 4 -1.202546
3237 3167 -1.216214
3237 3237 4.915678
3237 3238 -2.288703
3237 3239 0.791786
3238 4 -0.385342
3238 3166 -0.045872
3238 3237 -1.505333
3238 3238 6.488794
3238 3239 -3.552247
3239 4 -2.911178
3239 3237 -0.069334
3239 3238 -2.903647
3239 3239 6.884159
3240 4 -1.543338
3240 3166 -1.216214
3240 3240 6.193331
3240 3241 -3.193312
3240 3242 0.759532
3241 4 -0.21309
3241 3167 -0.045872
3241 3240 -2.614293
3241 3241 7.526643
3241 3242 -3.653389
3242 4 -2.975369
3242 3240 0.22641
3242 3241 -3.2387
3242 3242 6.98766
3243 4 -1.202546
3243 3167 -1.216214
3243 3243 4.915678
3243 3244 -2.288703
3243 3245 0.791786
3244 4 -0.385342
3244 3166 -0.045872
3244 3243 -1.505333
3244 3244 6.488794
3244 3245 -3.552247
3245 4 -2.911178
3245 3243 -0.069334
3245 3244 -2.903647
3245 3245 6.884159
3246 4 -1.543338
3246 3166 -1.216214
3246 3246 6.193331
3246 3247 -3.193312
3246 3248 0.759532
3247 4 -0.21309
3247 3167 -0.045872
3247 3246 -2.614293
3247 3247 7.526643
3247 3248 -3.653389
3248 4 -2.975369
3248 3246 0.22641
3248 3247 -3.2387
3248 3248 6.98766
3249 4 -1.202546
3249 3167 -1.216214
3249 3249 4.915678
3249 3250 -2.288703
3249 3251 0.791786
3250 4 -0.385342
3250 3166 -0.045872
3250 3249 -1.505333
3250 3250 6.488794
3250 3251 -3.552247
3251 4 -2.911178
3251 3249 -0.069334
3251 3250 -2.903647
3251 3251 6.884159
3252 4 -1.543338
3252 3166 -1.216214
3252 3252 6.193331
3252 3253 -3.193312
3252 3254 0.759532
3253 4 -0.21309
3253 3167 -0.045872
3253 3252 -2.614293
3253 3253 7.526643
3253 3254 -3.653389
3254 4 -2.975369
3254 3252 0.22641
3254 3253 -3.2387
3254 3254 6.98766
3255 4 -1.202545
3255 3167 -1.216214
3255 3255 4.915678
3255 3256 -2.288692
3255 3257 0.791772
3256 4 -0.385345
3256 3166 -0.045872
3256 3255 -1.505335
3256 3256 6.48877
3256 3257 -3.552219
3257 4 -3.548228
3257 3255 -0.069333
3257 3256 -2.903629
3257 3257 7.52119
3258 4 -1.54334
3258 3166 -1.216214
3258 3258 6.193358
3258 3259 -3.193328
3258 3260 0.759524
3259 4 -0.213083
3259 3167 -0.045872
3259 3258 -2.614329
3259 3259 7.526663
3259 3260 -3.65338
3260 4 -3.612333
3260 3258 0.226426
3260 3259 -3.238709
3260 3260 7.624616
3261 1 -17.2055
3261 2 -19.5265
3261 4 -5.6965
3261 6 -0.0405
3261 16 -2.847
3261 3167 -1.522
3261 3261 68.59008
3261 3262 -2.297298
3261 3269 -2.297298
3261 3275 -2.297298
3261 3281 -2.297298
3261 3673 -2.837837
3261 3679 -2.837837
3261 3685 -2.837837
3261 3691 -2.837837
3261 3698 -0.019231
3261 3704 -0.019231
3261 3710 -0.019231
3261 3716 -0.019231
3261 3722 -0.019231
3261 3728 -0.019231
3261 3734 -0.019231
3261 3740 -0.019231
3261 3746 -0.019231
3261 3752 -0.019231
3261 3758 -0.019231
3262 4 -2.545062
3262 3261 -2.297298
3262 3262 10.202395
3262 3263 -6.160485
3262 3264 1.80045
3263 2 -0.026455
3263 4 -0.528416
3263 3262 -4.649341
3263 3263 13.834799
3263 3264 -7.630587
3264 4 -6.584467
3264 3262 0.291549
3264 3263 -6.434244
3264 3264 13.727162
3265 1 -17.185
3265 2 -19.5575
3265 4 -5.6545
3265 6 -0.0345
3265 15 -2.8445
3265 3166 -1.522
3265 3265 68.55008
3265 3266 -2.297298
3265 3272 -2.297298
3265 3278 -2.297298
3265 3284 -2.297298
3265 3676 -2.837837
3265 3682 -2.837837
3265 3688 -2.837837
3265 3694 -2.837837
3265 3701 -0.019231
3265 3707 -0.019231
3265 3713 -0.019231
3265 3719 -0.019231
3265 3725 -0.019231
3265 3731 -0.019231
3265 3737 -0.019231
3265 3743 -0.019231
3265 3749 -0.019231
3265 3755 -0.019231
3265 3761 -0.019231
3266 4 -2.481901
3266 3265 -2.297298
3266 3266 9.896753
3266 3267 -5.982973
3266 3268 1.86542
3267 2 -0.026455
3267 4 -0.550504
3267 3266 -4.353595
3267 3267 13.637697
3267 3268 -7.707143
3268 4 -6.573275
3268 3266 0.18079
3268 3267 -6.361532
3268 3268 13.754017
3269 4 -2.545055
3269 3261 -2.297298
3269 3269 10.202306
3269 3270 -6.160419
3269 3271 1.800466
3270 2 -0.026455
3270 4 -0.528433
3270 3269 -4.649234
3270 3270 13.834728
3270 3271 -7.630607
3271 4 -5.477479
3271 3269 0.29151
3271 3270 -6.434214
3271 3271 12.620183
3272 4 -2.481897
3272 3265 -2.297298
3272 3272 9.896673
3272 3273 -5.982909
3272 3274 1.865431
3273 2 -0.026455
3273 4 -0.550518
3273 3272 -4.353503
3273 3273 13.637632
3273 3274 -7.707155
3274 4 -5.466308
3274 3272 0.180759
3274 3273 -6.361506
3274 3274 12.647055
3275 4 -2.545055
3275 3261 -2.297298
3275 3275 10.202306
3275 3276 -6.160419
3275 3277 1.800466
3276 2 -0.026455
3276 4 -0.528433
3276 3275 -4.649234
3276 3276 13.834728
3276 3277 -7.630607
3277 4 -5.477479
3277 3275 0.29151
3277 3276 -6.434214
3277 3277 12.620183
3278 4 -2.481897
3278 3265 -2.297298
3278 3278 9.896673
3278 3279 -5.982909
3278 3280 1.865431
3279 2 -0.026455
3279 4 -0.550518
3279 3278 -4.353503
3279 3279 13.637632
3279 3280 -7.707155
3280 4 -5.466308
3280 3278 0.180759
3280 3279 -6.361506
3280 3280 12.647055
3281 4 -2.545062
3281 3261 -2.297298
3281 3281 10.202395
3281 3282 -6.160485
3281 3283 1.80045
3282 2 -0.026455
3282 4 -0.528416
3282 3281 -4.649341
3282 3282 13.834799
3282 3283 -7.630587
3283 4 -6.584467
3283 3281 0.291549
3283 3282 -6.434244
3283 3283 13.727162
3284 4 -2.481901
3284 3265 -2.297298
3284 3284 9.896753
3284 3285 -5.982973
3284 3286 1.86542
3285 2 -0.026455
3285 4 -0.550504
3285 3284 -4.353595
3285 3285 13.637697
3285 3286 -7.707143
3286 4 -6.573275
3286 3284 0.18079
3286 3285 -6.361532
3286 3286 13.754017
3287 4 -5.320321
3287 16 -1.754386
3287 3287 14.184848
3287 3288 -7.824456
3287 3289 1.714316
3288 2 -0.022523
3288 4 -0.522486
3288 3287 -6.801847
3288 3288 16.777637
3288 3289 -8.430781
3289 4 -6.474876
3289 3287 0.938142
3289 3288 -7.864764
3289 3289 14.401498
3290 4 -4.244584
3290 15 -1.754386
3290 3290 11.01114
3290 3291 -6.340618
3290 3292 2.328448
3291 2 -0.022523
3291 4 -0.733725
3291 3290 -4.157851
3291 3291 15.121757
3291 3292 -9.207658
3292 4 -6.356765
3292 3290 -0.099047
3292 3291 -7.249931
3292 3292 14.705743
3293 4 -3.354658
3293 16 -2.702703
3293 3293 13.167395
3293 3294 -7.824411
3293 3295 1.714376
3294 2 -0.022523
3294 4 -0.522499
3294 3293 -6.801683
3294 3294 16.777579
3294 3295 -8.430875
3295 4 -6.474865
3295 3293 0.938057
3295 3294 -7.864735
3295 3295 14.401543
3296 4 -2.631641
3296 15 -2.702703
3296 3296 10.34642
3296 3297 -6.340527
3296 3298 2.328451
3297 2 -0.022523
3297 4 -0.733741
3297 3296 -4.157745
3297 3297 15.121663
3297 3298 -9.207655
3298 4 -6.356758
3298 3296 -0.099074
3298 3297 -7.249908
3298 3298 14.70574
3299 4 -3.354658
3299 16 -2.702703
3299 3299 13.167395
3299 3300 -7.824411
3299 3301 1.714376
3300 2 -0.022523
3300 4 -0.522499
3300 3299 -6.801683
3300 3300 16.777579
3300 3301 -8.430875
3301 4 -6.474865
3301 3299 0.938057
3301 3300 -7.864735
3301 3301 14.401543
3302 4 -2.631641
3302 15 -2.702703
3302 3302 10.34642
3302 3303 -6.340527
3302 3304 2.328451
3303 2 -0.022523
3303 4 -0.733741
3303 3302 -4.157745
3303 3303 15.121663
3303 3304 -9.207655
3304 4 -6.356758
3304 3302 -0.099074
3304 3303 -7.249908
3304 3304 14.70574
3305 4 -3.354658
3305 16 -2.702703
3305 3305 13.167395
3305 3306 -7.824411
3305 3307 1.714376
3306 2 -0.022523
3306 4 -0.522499
3306 3305 -6.801683
3306 3306 16.777579
3306 3307 -8.430875
3307 4 -6.474865
3307 3305 0.938057
3307 3306 -7.864735
3307 3307 14.401543
3308 4 -2.631641
3308 15 -2.702703
3308 3308 10.34642
3308 3309 -6.340527
3308 3310 2.328451
3309 2 -0.022523
3309 4 -0.733741
3309 3308 -4.157745
3309 3309 15.121663
3309 3310 -9.207655
3310 4 -6.356758
3310 3308 -0.099074
3310 3309 -7.249908
3310 3310 14.70574
3311 4 -3.354658
3311 16 -2.702703
3311 3311 13.167395
3311 3312 -7.824411
3311 3313 1.714376
3312 2 -0.022523
3312 4 -0.522499
3312 3311 -6.801683
3312 3312 16.777579
3312 3313 -8.430875
3313 4 -6.474865
3313 3311 0.938057
3313 3312 -7.864735
3313 3313 14.401543
3314 4 -2.631641
3314 15 -2.702703
3314 3314 10.34642
3314 3315 -6.340527
3314 3316 2.328451
3315 2 -0.022523
3315 4 -0.733741
3315 3314 -4.157745
3315 3315 15.121663
3315 3316 -9.207655
3316 4 -6.356758
3316 3314 -0.099074
3316 3315 -7.249908
3316 3316 14.70574
3317 4 -3.354658
3317 16 -2.702703
3317 3317 13.167395
3317 3318 -7.824411
3317 3319 1.714376
3318 2 -0.022523
3318 4 -0.522499
3318 3317 -6.801683
3318 3318 16.777579
3318 3319 -8.430875
3319 4 -6.474865
3319 3317 0.938057
3319 3318 -7.864735
3319 3319 14.401543
3320 4 -2.631641
3320 15 -2.702703
3320 3320 10.34642
3320 3321 -6.340527
3320 3322 2.328451
3321 2 -0.022523
3321 4 -0.733741
3321 3320 -4.157745
3321 3321 15.121663
3321 3322 -9.207655
3322 4 -6.356758
3322 3320 -0.099074
3322 3321 -7.249908
3322 3322 14.70574
3323 4 -3.354658
3323 16 -2.702703
3323 3323 13.167395
3323 3324 -7.824411
3323 3325 1.714376
3324 2 -0.022523
3324 4 -0.522499
3324 3323 -6.801683
3324 3324 16.777579
3324 3325 -8.430875
3325 4 -6.474865
3325 3323 0.938057
3325 3324 -7.864735
3325 3325 14.401543
3326 4 -2.631641
3326 15 -2.702703
3326 3326 10.34642
3326 3327 -6.340527
3326 3328 2.328451
3327 2 -0.022523
3327 4 -0.733741
3327 3326 -4.157745
3327 3327 15.121663
3327 3328 -9.207655
3328 4 -6.356758
3328 3326 -0.099074
3328 3327 -7.249908
3328 3328 14.70574
3329 4 -3.354658
3329 16 -2.702703
3329 3329 13.167395
3329 3330 -7.824411
3329 3331 1.714376
3330 2 -0.022523
3330 4 -0.522499
3330 3329 -6.801683
3330 3330 16.777579
3330 3331 -8.430875
3331 4 -6.474865
3331 3329 0.938057
3331 3330 -7.864735
3331 3331 14.401543
3332 4 -2.631641
3332 15 -2.702703
3332 3332 10.34642
3332 3333 -6.340527
3332 3334 2.328451
3333 2 -0.022523
3333 4 -0.733741
3333 3332 -4.157745
3333 3333 15.121663
3333 3334 -9.207655
3334 4 -6.356758
3334 3332 -0.099074
3334 3333 -7.249908
3334 3334 14.70574
3335 4 -3.354658
3335 16 -2.702703
3335 3335 13.167395
3335 3336 -7.824411
3335 3337 1.714376
3336 2 -0.022523
3336 4 -0.522499
3336 3335 -6.801683
3336 3336 16.777579
3336 3337 -8.430875
3337 4 -6.474865
3337 3335 0.938057
3337 3336 -7.864735
3337 3337 14.401543
3338 4 -2.631641
3338 15 -2.702703
3338 3338 10.34642
3338 3339 -6.340527
3338 3340 2.328451
3339 2 -0.022523
3339 4 -0.733741
3339 3338 -4.157745
3339 3339 15.121663
3339 3340 -9.207655
3340 4 -6.356758
3340 3338 -0.099074
3340 3339 -7.249908
3340 3340 14.70574
3341 4 -3.354658
3341 16 -2.702703
3341 3341 13.167395
3341 3342 -7.824411
3341 3343 1.714376
3342 2 -0.022523
3342 4 -0.522499
3342 3341 -6.801683
3342 3342 16.777579
3342 3343 -8.430875
3343 4 -6.474865
3343 3341 0.938057
3343 3342 -7.864735
3343 3343 14.401543
3344 4 -2.631641
3344 15 -2.702703
3344 3344 10.34642
3344 3345 -6.340527
3344 3346 2.328451
3345 2 -0.022523
3345 4 -0.733741
3345 3344 -4.157745
3345 3345 15.121663
3345 3346 -9.207655
3346 4 -6.356758
3346 3344 -0.099074
3346 3345 -7.249908
3346 3346 14.70574
3347 4 -3.354662
3347 16 -2.702703
3347 3347 13.167451
3347 3348 -7.824437
3347 3349 1.714351
3348 2 -0.022523
3348 4 -0.522482
3348 3347 -6.801769
3348 3348 16.777612
3348 3349 -8.430838
3349 4 -7.758314
3349 3347 0.938099
3349 3348 -7.864752
3349 3349 15.684968
3350 4 -2.631629
3350 15 -2.702703
3350 3350 10.346422
3350 3351 -6.340534
3350 3352 2.328444
3351 2 -0.022523
3351 4 -0.733743
3351 3350 -4.157742
3351 3351 15.121657
3351 3352 -9.20765
3352 4 -7.639952
3352 3350 -0.099078
3352 3351 -7.24991
3352 3352 15.98894
3353 1 -15.837
3353 2 -74.9745
3353 4 -1.555
3353 6 -11.935
3353 3166 -0.4245
3353 3167 -2.832
3353 3353 296.098563
3353 3354 -4.054065
3353 3357 -0.03
3353 3361 -4.054065
3353 3367 -4.054065
3353 3373 -4.054065
3353 3379 -4.054065
3353 3385 -4.054065
3353 3391 -4.054065
3353 3397 -4.054065
3353 3403 -4.054065
3353 3409 -4.054065
3353 3415 -4.054065
3353 3421 -4.054065
3353 3427 -4.054065
3353 3433 -4.054065
3353 3439 -4.054065
3353 3445 -4.054065
3353 3451 -4.054065
3353 3457 -4.054065
3353 3463 -4.054065
3353 3469 -4.054065
3353 3475 -4.054065
3353 3481 -4.054065
3353 3487 -4.054065
3353 3493 -4.054065
3353 3499 -4.054065
3353 3505 -4.054065
3353 3511 -4.054065
3353 3517 -4.054065
3353 3523 -4.054065
3353 3529 -4.054065
3353 3535 -4.054065
3353 3541 -4.054065
3353 3547 -4.054065
3353 3553 -4.054065
3353 3559 -4.054065
3353 3565 -4.054065
3353 3571 -4.054065
3353 3577 -4.054065
3353 3583 -4.054065
3353 3589 -4.054065
3353 3595 -4.054065
3353 3601 -4.054065
3353 3607 -4.054065
3353 3613 -4.054065
3353 3619 -2.674898
3353 3627 -0.802472
3353 3633 -1.216214
3353 3639 -1.216214
3353 3645 -1.216214
3353 3651 -1.216214
3353 3657 -0.789478
3354 2 -4.545266
3354 3353 -4.054065
3354 3354 18.638167
3354 3355 -11.207476
3354 3356 2.16864
3355 2 -0.551527
3355 6 -0.013755
3355 3354 -10.297129
3355 3355 23.505972
3355 3356 -11.643561
3356 2 -10.147668
3356 3354 1.342178
3356 3355 -11.21258
3356 3356 21.018069
3357 1 -15.7255
3357 2 -75.113
3357 4 -1.5575
3357 6 -11.9355
3357 3166 -2.8285
3357 3167 -0.4245
3357 3353 -0.03
3357 3357 296.125063
3357 3358 -4.054065
3357 3364 -4.054065
3357 3370 -4.054065
3357 3376 -4.054065
3357 3382 -4.054065
3357 3388 -4.054065
3357 3394 -4.054065
3357 3400 -4.054065
3357 3406 -4.054065
3357 3412 -4.054065
3357 3418 -4.054065
3357 3424 -4.054065
3357 3430 -4.054065
3357 3436 -4.054065
3357 3442 -4.054065
3357 3448 -4.054065
3357 3454 -4.054065
3357 3460 -4.054065
3357 3466 -4.054065
3357 3472 -4.054065
3357 3478 -4.054065
3357 3484 -4.054065
3357 3490 -4.054065
3357 3496 -4.054065
3357 3502 -4.054065
3357 3508 -4.054065
3357 3514 -4.054065
3357 3520 -4.054065
3357 3526 -4.054065
3357 3532 -4.054065
3357 3538 -4.054065
3357 3544 -4.054065
3357 3550 -4.054065
3357 3556 -4.054065
3357 3562 -4.054065
3357 3568 -4.054065
3357 3574 -4.054065
3357 3580 -4.054065
3357 3586 -4.054065
3357 3592 -4.054065
3357 3598 -4.054065
3357 3604 -4.054065
3357 3610 -4.054065
3357 3616 -4.054065
3357 3622 -2.674898
3357 3630 -0.802472
3357 3636 -1.216214
3357 3642 -1.216214
3357 3648 -1.216214
3357 3654 -1.216214
3357 3660 -0.789478
3358 2 -4.569791
3358 3357 -4.054065
3358 3358 18.708805
3358 3359 -11.217496
3358 3360 2.132548
3359 2 -0.549779
3359 6 -0.013755
3359 3358 -10.377019
3359 3359 23.520056
3359 3360 -11.579502
3360 2 -10.148613
3360 3358 1.380157
3360 3359 -11.217584
3360 3360 20.98604
3361 2 -4.545267
3361 3353 -4.054065
3361 3361 18.638155
3361 3362 -11.207473
3361 3363 2.168649
3362 2 -0.551528
3362 6 -0.013755
3362 3361 -10.297108
3362 3362 23.505968
3362 3363 -11.643577
3363 2 -8.623378
3363 3361 1.342168
3363 3362 -11.212578
3363 3363 19.493788
3364 2 -4.569791
3364 3357 -4.054065
3364 3364 18.708804
3364 3365 -11.217496
3364 3366 2.132548
3365 2 -0.549779
3365 6 -0.013755
3365 3364 -10.377019
3365 3365 23.520056
3365 3366 -11.579503
3366 2 -8.6243
3366 3364 1.380157
3366 3365 -11.217584
3366 3366 19.461727
3367 2 -4.545267
3367 3353 -4.054065
3367 3367 18.638155
3367 3368 -11.207473
3367 3369 2.168649
3368 2 -0.551528
3368 6 -0.013755
3368 3367 -10.297108
3368 3368 23.505968
3368 3369 -11.643577
3369 2 -8.623378
3369 3367 1.342168
3369 3368 -11.212578
3369 3369 19.493788
3370 2 -4.569791
3370 3357 -4.054065
3370 3370 18.708804
3370 3371 -11.217496
3370 3372 2.132548
3371 2 -0.549779
3371 6 -0.013755
3371 3370 -10.377019
3371 3371 23.520056
3371 3372 -11.579503
3372 2 -8.6243
3372 3370 1.380157
3372 3371 -11.217584
3372 3372 19.461727
3373 2 -4.545267
3373 3353 -4.054065
3373 3373 18.638155
3373 3374 -11.207473
3373 3375 2.168649
3374 2 -0.551528
3374 6 -0.013755
3374 3373 -10.297108
3374 3374 23.505968
3374 3375 -11.643577
3375 2 -8.623378
3375 3373 1.342168
3375 3374 -11.212578
3375 3375 19.493788
3376 2 -4.569791
3376 3357 -4.054065
3376 3376 18.708804
3376 3377 -11.217496
3376 3378 2.132548
3377 2 -0.549779
3377 6 -0.013755
3377 3376 -10.377019
3377 3377 23.520056
3377 3378 -11.579503
3378 2 -8.6243
3378 3376 1.380157
3378 3377 -11.217584
3378 3378 19.461727
3379 2 -4.545267
3379 3353 -4.054065
3379 3379 18.638155
3379 3380 -11.207473
3379 3381 2.168649
3380 2 -0.551528
3380 6 -0.013755
3380 3379 -10.297108
3380 3380 23.505968
3380 3381 -11.643577
3381 2 -8.623378
3381 3379 1.342168
3381 3380 -11.212578
3381 3381 19.493788
3382 2 -4.569791
3382 3357 -4.054065
3382 3382 18.708804
3382 3383 -11.217496
3382 3384 2.132548
3383 2 -0.549779
3383 6 -0.013755
3383 3382 -10.377019
3383 3383 23.520056
3383 3384 -11.579503
3384 2 -8.6243
3384 3382 1.380157
3384 3383 -11.217584
3384 3384 19.461727
3385 2 -4.545267
3385 3353 -4.054065
3385 3385 18.638155
3385 3386 -11.207473
3385 3387 2.168649
3386 2 -0.551528
3386 6 -0.013755
3386 3385 -10.297108
3386 3386 23.505968
3386 3387 -11.643577
3387 2 -8.623378
3387 3385 1.342168
3387 3386 -11.212578
3387 3387 19.493788
3388 2 -4.569791
3388 3357 -4.054065
3388 3388 18.708804
3388 3389 -11.217496
3388 3390 2.132548
3389 2 -0.549779
3389 6 -0.013755
3389 3388 -10.377019
3389 3389 23.520056
3389 3390 -11.579503
3390 2 -8.6243
3390 3388 1.380157
3390 3389 -11.217584
3390 3390 19.461727
3391 2 -4.545267
3391 3353 -4.054065
3391 3391 18.638155
3391 3392 -11.207473
3391 3393 2.168649
3392 2 -0.551528
3392 6 -0.013755
3392 3391 -10.297108
3392 3392 23.505968
3392 3393 -11.643577
3393 2 -8.623378
3393 3391 1.342168
3393 3392 -11.212578
3393 3393 19.493788
3394 2 -4.569791
3394 3357 -4.054065
3394 3394 18.708804
3394 3395 -11.217496
3394 3396 2.132548
3395 2 -0.549779
3395 6 -0.013755
3395 3394 -10.377019
3395 3395 23.520056
3395 3396 -11.579503
3396 2 -8.6243
3396 3394 1.380157
3396 3395 -11.217584
3396 3396 19.461727
3397 2 -4.545267
3397 3353 -4.054065
3397 3397 18.638155
3397 3398 -11.207473
3397 3399 2.168649
3398 2 -0.551528
3398 6 -0.013755
3398 3397 -10.297108
3398 3398 23.505968
3398 3399 -11.643577
3399 2 -8.623378
3399 3397 1.342168
3399 3398 -11.212578
3399 3399 19.493788
3400 2 -4.569791
3400 3357 -4.054065
3400 3400 18.708804
3400 3401 -11.217496
3400 3402 2.132548
3401 2 -0.549779
3401 6 -0.013755
3401 3400 -10.377019
3401 3401 23.520056
3401 3402 -11.579503
3402 2 -8.6243
3402 3400 1.380157
3402 3401 -11.217584
3402 3402 19.461727
3403 2 -4.545267
3403 3353 -4.054065
3403 3403 18.638155
3403 3404 -11.207473
3403 3405 2.168649
3404 2 -0.551528
3404 6 -0.013755
3404 3403 -10.297108
3404 3404 23.505968
3404 3405 -11.643577
3405 2 -8.623378
3405 3403 1.342168
3405 3404 -11.212578
3405 3405 19.493788
3406 2 -4.569791
3406 3357 -4.054065
3406 3406 18.708804
3406 3407 -11.217496
3406 3408 2.132548
3407 2 -0.549779
3407 6 -0.013755
3407 3406 -10.377019
3407 3407 23.520056
3407 3408 -11.579503
3408 2 -8.6243
3408 3406 1.380157
3408 3407 -11.217584
3408 3408 19.461727
3409 2 -4.545267
3409 3353 -4.054065
3409 3409 18.638155
3409 3410 -11.207473
3409 3411 2.168649
3410 2 -0.551528
3410 6 -0.013755
3410 3409 -10.297108
3410 3410 23.505968
3410 3411 -11.643577
3411 2 -8.623378
3411 3409 1.342168
3411 3410 -11.212578
3411 3411 19.493788
3412 2 -4.569791
3412 3357 -4.054065
3412 3412 18.708804
3412 3413 -11.217496
3412 3414 2.132548
3413 2 -0.549779
3413 6 -0.013755
3413 3412 -10.377019
3413 3413 23.520056
3413 3414 -11.579503
3414 2 -8.6243
3414 3412 1.380157
3414 3413 -11.217584
3414 3414 19.461727
3415 2 -4.545267
3415 3353 -4.054065
3415 3415 18.638155
3415 3416 -11.207473
3415 3417 2.168649
3416 2 -0.551528
3416 6 -0.013755
3416 3415 -10.297108
3416 3416 23.505968
3416 3417 -11.643577
3417 2 -8.623378
3417 3415 1.342168
3417 3416 -11.212578
3417 3417 19.493788
3418 2 -4.569791
3418 3357 -4.054065
3418 3418 18.708804
3418 3419 -11.217496
3418 3420 2.132548
3419 2 -0.549779
3419 6 -0.013755
3419 3418 -10.377019
3419 3419 23.520056
3419 3420 -11.579503
3420 2 -8.6243
3420 3418 1.380157
3420 3419 -11.217584
3420 3420 19.461727
3421 2 -4.545267
3421 3353 -4.054065
3421 3421 18.638155
3421 3422 -11.207473
3421 3423 2.168649
3422 2 -0.551528
3422 6 -0.013755
3422 3421 -10.297108
3422 3422 23.505968
3422 3423 -11.643577
3423 2 -8.623378
3423 3421 1.342168
3423 3422 -11.212578
3423 3423 19.493788
3424 2 -4.569791
3424 3357 -4.054065
3424 3424 18.708804
3424 3425 -11.217496
3424 3426 2.132548
3425 2 -0.549779
3425 6 -0.013755
3425 3424 -10.377019
3425 3425 23.520056
3425 3426 -11.579503
3426 2 -8.6243
3426 3424 1.380157
3426 3425 -11.217584
3426 3426 19.461727
3427 2 -4.545267
3427 3353 -4.054065
3427 3427 18.638155
3427 3428 -11.207473
3427 3429 2.168649
3428 2 -0.551528
3428 6 -0.013755
3428 3427 -10.297108
3428 3428 23.505968
3428 3429 -11.643577
3429 2 -8.623378
3429 3427 1.342168
3429 3428 -11.212578
3429 3429 19.493788
3430 2 -4.569791
3430 3357 -4.054065
3430 3430 18.708804
3430 3431 -11.217496
3430 3432 2.132548
3431 2 -0.549779
3431 6 -0.013755
3431 3430 -10.377019
3431 3431 23.520056
3431 3432 -11.579503
3432 2 -8.6243
3432 3430 1.380157
3432 3431 -11.217584
3432 3432 19.461727
3433 2 -4.545267
3433 3353 -4.054065
3433 3433 18.638155
3433 3434 -11.207473
3433 3435 2.168649
3434 2 -0.551528
3434 6 -0.013755
3434 3433 -10.297108
3434 3434 23.505968
3434 3435 -11.643577
3435 2 -8.623378
3435 3433 1.342168
3435 3434 -11.212578
3435 3435 19.493788
3436 2 -4.569791
3436 3357 -4.054065
3436 3436 18.708804
3436 3437 -11.217496
3436 3438 2.132548
3437 2 -0.549779
3437 6 -0.013755
3437 3436 -10.377019
3437 3437 23.520056
3437 3438 -11.579503
3438 2 -8.6243
3438 3436 1.380157
3438 3437 -11.217584
3438 3438 19.461727
3439 2 -4.545267
3439 3353 -4.054065
3439 3439 18.638155
3439 3440 -11.207473
3439 3441 2.168649
3440 2 -0.551528
3440 6 -0.013755
3440 3439 -10.297108
3440 3440 23.505968
3440 3441 -11.643577
3441 2 -8.623378
3441 3439 1.342168
3441 3440 -11.212578
3441 3441 19.493788
3442 2 -4.569791
3442 3357 -4.054065
3442 3442 18.708804
3442 3443 -11.217496
3442 3444 2.132548
3443 2 -0.549779
3443 6 -0.013755
3443 3442 -10.377019
3443 3443 23.520056
3443 3444 -11.579503
3444 2 -8.6243
3444 3442 1.380157
3444 3443 -11.217584
3444 3444 19.461727
3445 2 -4.545267
3445 3353 -4.054065
3445 3445 18.638155
3445 3446 -11.207473
3445 3447 2.168649
3446 2 -0.551528
3446 6 -0.013755
3446 3445 -10.297108
3446 3446 23.505968
3446 3447 -11.643577
3447 2 -8.623378
3447 3445 1.342168
3447 3446 -11.212578
3447 3447 19.493788
3448 2 -4.569791
3448 3357 -4.054065
3448 3448 18.708804
3448 3449 -11.217496
3448 3450 2.132548
3449 2 -0.549779
3449 6 -0.013755
3449 3448 -10.377019
3449 3449 23.520056
3449 3450 -11.579503
3450 2 -8.6243
3450 3448 1.380157
3450 3449 -11.217584
3450 3450 19.461727
3451 2 -4.545267
3451 3353 -4.054065
3451 3451 18.638155
3451 3452 -11.207473
3451 3453 2.168649
3452 2 -0.551528
3452 6 -0.013755
3452 3451 -10.297108
3452 3452 23.505968
3452 3453 -11.643577
3453 2 -8.623378
3453 3451 1.342168
3453 3452 -11.212578
3453 3453 19.493788
3454 2 -4.569791
3454 3357 -4.054065
3454 3454 18.708804
3454 3455 -11.217496
3454 3456 2.132548
3455 2 -0.549779
3455 6 -0.013755
3455 3454 -10.377019
3455 3455 23.520056
3455 3456 -11.579503
3456 2 -8.6243
3456 3454 1.380157
3456 3455 -11.217584
3456 3456 19.461727
3457 2 -4.545267
3457 3353 -4.054065
3457 3457 18.638155
3457 3458 -11.207473
3457 3459 2.168649
3458 2 -0.551528
3458 6 -0.013755
3458 3457 -10.297108
3458 3458 23.505968
3458 3459 -11.643577
3459 2 -8.623378
3459 3457 1.342168
3459 3458 -11.212578
3459 3459 19.493788
3460 2 -4.569791
3460 3357 -4.054065
3460 3460 18.708804
3460 3461 -11.217496
3460 3462 2.132548
3461 2 -0.549779
3461 6 -0.013755
3461 3460 -10.377019
3461 3461 23.520056
3461 3462 -11.579503
3462 2 -8.6243
3462 3460 1.380157
3462 3461 -11.217584
3462 3462 19.461727
3463 2 -4.545267
3463 3353 -4.054065
3463 3463 18.638155
3463 3464 -11.207473
3463 3465 2.168649
3464 2 -0.551528
3464 6 -0.013755
3464 3463 -10.297108
3464 3464 23.505968
3464 3465 -11.643577
3465 2 -8.623378
3465 3463 1.342168
3465 3464 -11.212578
3465 3465 19.493788
3466 2 -4.569791
3466 3357 -4.054065
3466 3466 18.708804
3466 3467 -11.217496
3466 3468 2.132548
3467 2 -0.549779
3467 6 -0.013755
3467 3466 -10.377019
3467 3467 23.520056
3467 3468 -11.579503
3468 2 -8.6243
3468 3466 1.380157
3468 3467 -11.217584
3468 3468 19.461727
3469 2 -4.545267
3469 3353 -4.054065
3469 3469 18.638155
3469 3470 -11.207473
3469 3471 2.168649
3470 2 -0.551528
3470 6 -0.013755
3470 3469 -10.297108
3470 3470 23.505968
3470 3471 -11.643577
3471 2 -8.623378
3471 3469 1.342168
3471 3470 -11.212578
3471 3471 19.493788
3472 2 -4.569791
3472 3357 -4.054065
3472 3472 18.708804
3472 3473 -11.217496
3472 3474 2.132548
3473 2 -0.549779
3473 6 -0.013755
3473 3472 -10.377019
3473 3473 23.520056
3473 3474 -11.579503
3474 2 -8.6243
3474 3472 1.380157
3474 3473 -11.217584
3474 3474 19.461727
3475 2 -4.545267
3475 3353 -4.054065
3475 3475 18.638155
3475 3476 -11.207473
3475 3477 2.168649
3476 2 -0.551528
3476 6 -0.013755
3476 3475 -10.297108
3476 3476 23.505968
3476 3477 -11.643577
3477 2 -8.623378
3477 3475 1.342168
3477 3476 -11.212578
3477 3477 19.493788
3478 2 -4.569791
3478 3357 -4.054065
3478 3478 18.708804
3478 3479 -11.217496
3478 3480 2.132548
3479 2 -0.549779
3479 6 -0.013755
3479 3478 -10.377019
3479 3479 23.520056
3479 3480 -11.579503
3480 2 -8.6243
3480 3478 1.380157
3480 3479 -11.217584
3480 3480 19.461727
3481 2 -4.545267
3481 3353 -4.054065
3481 3481 18.638155
3481 3482 -11.207473
3481 3483 2.168649
3482 2 -0.551528
3482 6 -0.013755
3482 3481 -10.297108
3482 3482 23.505968
3482 3483 -11.643577
3483 2 -8.623378
3483 3481 1.342168
3483 3482 -11.212578
3483 3483 19.493788
3484 2 -4.569791
3484 3357 -4.054065
3484 3484 18.708804
3484 3485 -11.217496
3484 3486 2.132548
3485 2 -0.549779
3485 6 -0.013755
3485 3484 -10.377019
3485 3485 23.520056
3485 3486 -11.579503
3486 2 -8.6243
3486 3484 1.380157
3486 3485 -11.217584
3486 3486 19.461727
3487 2 -4.545267
3487 3353 -4.054065
3487 3487 18.638155
3487 3488 -11.207473
3487 3489 2.168649
3488 2 -0.551528
3488 6 -0.013755
3488 3487 -10.297108
3488 3488 23.505968
3488 3489 -11.643577
3489 2 -8.623378
3489 3487 1.342168
3489 3488 -11.212578
3489 3489 19.493788
3490 2 -4.569791
3490 3357 -4.054065
3490 3490 18.708804
3490 3491 -11.217496
3490 3492 2.132548
3491 2 -0.549779
3491 6 -0.013755
3491 3490 -10.377019
3491 3491 23.520056
3491 3492 -11.579503
3492 2 -8.6243
3492 3490 1.380157
3492 3491 -11.217584
3492 3492 19.461727
3493 2 -4.545267
3493 3353 -4.054065
3493 3493 18.638155
3493 3494 -11.207473
3493 3495 2.168649
3494 2 -0.551528
3494 6 -0.013755
3494 3493 -10.297108
3494 3494 23.505968
3494 3495 -11.643577
3495 2 -8.623378
3495 3493 1.342168
3495 3494 -11.212578
3495 3495 19.493788
3496 2 -4.569791
3496 3357 -4.054065
3496 3496 18.708804
3496 3497 -11.217496
3496 3498 2.132548
3497 2 -0.549779
3497 6 -0.013755
3497 3496 -10.377019
3497 3497 23.520056
3497 3498 -11.579503
3498 2 -8.6243
3498 3496 1.380157
3498 3497 -11.217584
3498 3498 19.461727
3499 2 -4.545267
3499 3353 -4.054065
3499 3499 18.638155
3499 3500 -11.207473
3499 3501 2.168649
3500 2 -0.551528
3500 6 -0.013755
3500 3499 -10.297108
3500 3500 23.505968
3500 3501 -11.643577
3501 2 -8.623378
3501 3499 1.342168
3501 3500 -11.212578
3501 3501 19.493788
3502 2 -4.569791
3502 3357 -4.054065
3502 3502 18.708804
3502 3503 -11.217496
3502 3504 2.132548
3503 2 -0.549779
3503 6 -0.013755
3503 3502 -10.377019
3503 3503 23.520056
3503 3504 -11.579503
3504 2 -8.6243
3504 3502 1.380157
3504 3503 -11.217584
3504 3504 19.461727
3505 2 -4.545267
3505 3353 -4.054065
3505 3505 18.638155
3505 3506 -11.207473
3505 3507 2.168649
3506 2 -0.551528
3506 6 -0.013755
3506 3505 -10.297108
3506 3506 23.505968
3506 3507 -11.643577
3507 2 -8.623378
3507 3505 1.342168
3507 3506 -11.212578
3507 3507 19.493788
3508 2 -4.569791
3508 3357 -4.054065
3508 3508 18.708804
3508 3509 -11.217496
3508 3510 2.132548
3509 2 -0.549779
3509 6 -0.013755
3509 3508 -10.377019
3509 3509 23.520056
3509 3510 -11.579503
3510 2 -8.6243
3510 3508 1.380157
3510 3509 -11.217584
3510 3510 19.461727
3511 2 -4.545267
3511 3353 -4.054065
3511 3511 18.638155
3511 3512 -11.207473
3511 3513 2.168649
3512 2 -0.551528
3512 6 -0.013755
3512 3511 -10.297108
3512 3512 23.505968
3512 3513 -11.643577
3513 2 -8.623378
3513 3511 1.342168
3513 3512 -11.212578
3513 3513 19.493788
3514 2 -4.569791
3514 3357 -4.054065
3514 3514 18.708804
3514 3515 -11.217496
3514 3516 2.132548
3515 2 -0.549779
3515 6 -0.013755
3515 3514 -10.377019
3515 3515 23.520056
3515 3516 -11.579503
3516 2 -8.6243
3516 3514 1.380157
3516 3515 -11.217584
3516 3516 19.461727
3517 2 -4.545267
3517 3353 -4.054065
3517 3517 18.638155
3517 3518 -11.207473
3517 3519 2.168649
3518 2 -0.551528
3518 6 -0.013755
3518 3517 -10.297108
3518 3518 23.505968
3518 3519 -11.643577
3519 2 -8.623378
3519 3517 1.342168
3519 3518 -11.212578
3519 3519 19.493788
3520 2 -4.569791
3520 3357 -4.054065
3520 3520 18.708804
3520 3521 -11.217496
3520 3522 2.132548
3521 2 -0.549779
3521 6 -0.013755
3521 3520 -10.377019
3521 3521 23.520056
3521 3522 -11.579503
3522 2 -8.6243
3522 3520 1.380157
3522 3521 -11.217584
3522 3522 19.461727
3523 2 -4.545267
3523 3353 -4.054065
3523 3523 18.638155
3523 3524 -11.207473
3523 3525 2.168649
3524 2 -0.551528
3524 6 -0.013755
3524 3523 -10.297108
3524 3524 23.505968
3524 3525 -11.643577
3525 2 -8.623378
3525 3523 1.342168
3525 3524 -11.212578
3525 3525 19.493788
3526 2 -4.569791
3526 3357 -4.054065
3526 3526 18.708804
3526 3527 -11.217496
3526 3528 2.132548
3527 2 -0.549779
3527 6 -0.013755
3527 3526 -10.377019
3527 3527 23.520056
3527 3528 -11.579503
3528 2 -8.6243
3528 3526 1.380157
3528 3527 -11.217584
3528 3528 19.461727
3529 2 -4.545267
3529 3353 -4.054065
3529 3529 18.638155
3529 3530 -11.207473
3529 3531 2.168649
3530 2 -0.551528
3530 6 -0.013755
3530 3529 -10.297108
3530 3530 23.505968
3530 3531 -11.643577
3531 2 -8.623378
3531 3529 1.342168
3531 3530 -11.212578
3531 3531 19.493788
3532 2 -4.569791
3532 3357 -4.054065
3532 3532 18.708804
3532 3533 -11.217496
3532 3534 2.132548
3533 2 -0.549779
3533 6 -0.013755
3533 3532 -10.377019
3533 3533 23.520056
3533 3534 -11.579503
3534 2 -8.6243
3534 3532 1.380157
3534 3533 -11.217584
3534 3534 19.461727
3535 2 -4.545267
3535 3353 -4.054065
3535 3535 18.638155
3535 3536 -11.207473
3535 3537 2.168649
3536 2 -0.551528
3536 6 -0.013755
3536 3535 -10.297108
3536 3536 23.505968
3536 3537 -11.643577
3537 2 -8.623378
3537 3535 1.342168
3537 3536 -11.212578
3537 3537 19.493788
3538 2 -4.569791
3538 3357 -4.054065
3538 3538 18.708804
3538 3539 -11.217496
3538 3540 2.132548
3539 2 -0.549779
3539 6 -0.013755
3539 3538 -10.377019
3539 3539 23.520056
3539 3540 -11.579503
3540 2 -8.6243
3540 3538 1.380157
3540 3539 -11.217584
3540 3540 19.461727
3541 2 -4.545267
3541 3353 -4.054065
3541 3541 18.638155
3541 3542 -11.207473
3541 3543 2.168649
3542 2 -0.551528
3542 6 -0.013755
3542 3541 -10.297108
3542 3542 23.505968
3542 3543 -11.643577
3543 2 -8.623378
3543 3541 1.342168
3543 3542 -11.212578
3543 3543 19.493788
3544 2 -4.569791
3544 3357 -4.054065
3544 3544 18.708804
3544 3545 -11.217496
3544 3546 2.132548
3545 2 -0.549779
3545 6 -0.013755
3545 3544 -10.377019
3545 3545 23.520056
3545 3546 -11.579503
3546 2 -8.6243
3546 3544 1.380157
3546 3545 -11.217584
3546 3546 19.461727
3547 2 -4.545267
3547 3353 -4.054065
3547 3547 18.638155
3547 3548 -11.207473
3547 3549 2.168649
3548 2 -0.551528
3548 6 -0.013755
3548 3547 -10.297108
3548 3548 23.505968
3548 3549 -11.643577
3549 2 -8.623378
3549 3547 1.342168
3549 3548 -11.212578
3549 3549 19.493788
3550 2 -4.569791
3550 3357 -4.054065
3550 3550 18.708804
3550 3551 -11.217496
3550 3552 2.132548
3551 2 -0.549779
3551 6 -0.013755
3551 3550 -10.377019
3551 3551 23.520056
3551 3552 -11.579503
3552 2 -8.6243
3552 3550 1.380157
3552 3551 -11.217584
3552 3552 19.461727
3553 2 -4.545267
3553 3353 -4.054065
3553 3553 18.638155
3553 3554 -11.207473
3553 3555 2.168649
3554 2 -0.551528
3554 6 -0.013755
3554 3553 -10.297108
3554 3554 23.505968
3554 3555 -11.643577
3555 2 -8.623378
3555 3553 1.342168
3555 3554 -11.212578
3555 3555 19.493788
3556 2 -4.569791
3556 3357 -4.054065
3556 3556 18.708804
3556 3557 -11.217496
3556 3558 2.132548
3557 2 -0.549779
3557 6 -0.013755
3557 3556 -10.377019
3557 3557 23.520056
3557 3558 -11.579503
3558 2 -8.6243
3558 3556 1.380157
3558 3557 -11.217584
3558 3558 19.461727
3559 2 -4.545267
3559 3353 -4.054065
3559 3559 18.638155
3559 3560 -11.207473
3559 3561 2.168649
3560 2 -0.551528
3560 6 -0.013755
3560 3559 -10.297108
3560 3560 23.505968
3560 3561 -11.643577
3561 2 -8.623378
3561 3559 1.342168
3561 3560 -11.212578
3561 3561 19.493788
3562 2 -4.569791
3562 3357 -4.054065
3562 3562 18.708804
3562 3563 -11.217496
3562 3564 2.132548
3563 2 -0.549779
3563 6 -0.013755
3563 3562 -10.377019
3563 3563 23.520056
3563 3564 -11.579503
3564 2 -8.6243
3564 3562 1.380157
3564 3563 -11.217584
3564 3564 19.461727
3565 2 -4.545267
3565 3353 -4.054065
3565 3565 18.638155
3565 3566 -11.207473
3565 3567 2.168649
3566 2 -0.551528
3566 6 -0.013755
3566 3565 -10.297108
3566 3566 23.505968
3566 3567 -11.643577
3567 2 -8.623378
3567 3565 1.342168
3567 3566 -11.212578
3567 3567 19.493788
3568 2 -4.569791
3568 3357 -4.054065
3568 3568 18.708804
3568 3569 -11.217496
3568 3570 2.132548
3569 2 -0.549779
3569 6 -0.013755
3569 3568 -10.377019
3569 3569 23.520056
3569 3570 -11.579503
3570 2 -8.6243
3570 3568 1.380157
3570 3569 -11.217584
3570 3570 19.461727
3571 2 -4.545267
3571 3353 -4.054065
3571 3571 18.638155
3571 3572 -11.207473
3571 3573 2.168649
3572 2 -0.551528
3572 6 -0.013755
3572 3571 -10.297108
3572 3572 23.505968
3572 3573 -11.643577
3573 2 -8.623378
3573 3571 1.342168
3573 3572 -11.212578
3573 3573 19.493788
3574 2 -4.569791
3574 3357 -4.054065
3574 3574 18.708804
3574 3575 -11.217496
3574 3576 2.132548
3575 2 -0.549779
3575 6 -0.013755
3575 3574 -10.377019
3575 3575 23.520056
3575 3576 -11.579503
3576 2 -8.6243
3576 3574 1.380157
3576 3575 -11.217584
3576 3576 19.461727
3577 2 -4.545267
3577 3353 -4.054065
3577 3577 18.638155
3577 3578 -11.207473
3577 3579 2.168649
3578 2 -0.551528
3578 6 -0.013755
3578 3577 -10.297108
3578 3578 23.505968
3578 3579 -11.643577
3579 2 -8.623378
3579 3577 1.342168
3579 3578 -11.212578
3579 3579 19.493788
3580 2 -4.569791
3580 3357 -4.054065
3580 3580 18.708804
3580 3581 -11.217496
3580 3582 2.132548
3581 2 -0.549779
3581 6 -0.013755
3581 3580 -10.377019
3581 3581 23.520056
3581 3582 -11.579503
3582 2 -8.6243
3582 3580 1.380157
3582 3581 -11.217584
3582 3582 19.461727
3583 2 -4.545267
3583 3353 -4.054065
3583 3583 18.638155
3583 3584 -11.207473
3583 3585 2.168649
3584 2 -0.551528
3584 6 -0.013755
3584 3583 -10.297108
3584 3584 23.505968
3584 3585 -11.643577
3585 2 -8.623378
3585 3583 1.342168
3585 3584 -11.212578
3585 3585 19.493788
3586 2 -4.569791
3586 3357 -4.054065
3586 3586 18.708804
3586 3587 -11.217496
3586 3588 2.132548
3587 2 -0.549779
3587 6 -0.013755
3587 3586 -10.377019
3587 3587 23.520056
3587 3588 -11.579503
3588 2 -8.6243
3588 3586 1.380157
3588 3587 -11.217584
3588 3588 19.461727
3589 2 -4.545267
3589 3353 -4.054065
3589 3589 18.638155
3589 3590 -11.207473
3589 3591 2.168649
3590 2 -0.551528
3590 6 -0.013755
3590 3589 -10.297108
3590 3590 23.505968
3590 3591 -11.643577
3591 2 -8.623378
3591 3589 1.342168
3591 3590 -11.212578
3591 3591 19.493788
3592 2 -4.569791
3592 3357 -4.054065
3592 3592 18.708804
3592 3593 -11.217496
3592 3594 2.132548
3593 2 -0.549779
3593 6 -0.013755
3593 3592 -10.377019
3593 3593 23.520056
3593 3594 -11.579503
3594 2 -8.6243
3594 3592 1.380157
3594 3593 -11.217584
3594 3594 19.461727
3595 2 -4.545267
3595 3353 -4.054065
3595 3595 18.638155
3595 3596 -11.207473
3595 3597 2.168649
3596 2 -0.551528
3596 6 -0.013755
3596 3595 -10.297108
3596 3596 23.505968
3596 3597 -11.643577
3597 2 -8.623378
3597 3595 1.342168
3597 3596 -11.212578
3597 3597 19.493788
3598 2 -4.569791
3598 3357 -4.054065
3598 3598 18.708804
3598 3599 -11.217496
3598 3600 2.132548
3599 2 -0.549779
3599 6 -0.013755
3599 3598 -10.377019
3599 3599 23.520056
3599 3600 -11.579503
3600 2 -8.6243
3600 3598 1.380157
3600 3599 -11.217584
3600 3600 19.461727
3601 2 -4.545267
3601 3353 -4.054065
3601 3601 18.638155
3601 3602 -11.207473
3601 3603 2.168649
3602 2 -0.551528
3602 6 -0.013755
3602 3601 -10.297108
3602 3602 23.505968
3602 3603 -11.643577
3603 2 -8.623378
3603 3601 1.342168
3603 3602 -11.212578
3603 3603 19.493788
3604 2 -4.569791
3604 3357 -4.054065
3604 3604 18.708804
3604 3605 -11.217496
3604 3606 2.132548
3605 2 -0.549779
3605 6 -0.013755
3605 3604 -10.377019
3605 3605 23.520056
3605 3606 -11.579503
3606 2 -8.6243
3606 3604 1.380157
3606 3605 -11.217584
3606 3606 19.461727
3607 2 -4.545267
3607 3353 -4.054065
3607 3607 18.638155
3607 3608 -11.207473
3607 3609 2.168649
3608 2 -0.551528
3608 6 -0.013755
3608 3607 -10.297108
3608 3608 23.505968
3608 3609 -11.643577
3609 2 -8.623378
3609 3607 1.342168
3609 3608 -11.212578
3609 3609 19.493788
3610 2 -4.569791
3610 3357 -4.054065
3610 3610 18.708804
3610 3611 -11.217496
3610 3612 2.132548
3611 2 -0.549779
3611 6 -0.013755
3611 3610 -10.377019
3611 3611 23.520056
3611 3612 -11.579503
3612 2 -8.6243
3612 3610 1.380157
3612 3611 -11.217584
3612 3612 19.461727
3613 2 -4.545267
3613 3353 -4.054065
3613 3613 18.638155
3613 3614 -11.207473
3613 3615 2.168649
3614 2 -0.551528
3614 6 -0.013755
3614 3613 -10.297108
3614 3614 23.505968
3614 3615 -11.643577
3615 2 -8.623378
3615 3613 1.342168
3615 3614 -11.212578
3615 3615 19.493788
3616 2 -4.569791
3616 3357 -4.054065
3616 3616 18.708804
3616 3617 -11.217496
3616 3618 2.132548
3617 2 -0.549779
3617 6 -0.013755
3617 3616 -10.377019
3617 3617 23.520056
3617 3618 -11.579503
3618 2 -8.6243
3618 3616 1.380157
3618 3617 -11.217584
3618 3618 19.461727
3619 2 -6.928062
3619 3353 -2.674898
3619 3619 19.641799
3619 3620 -11.207476
3619 3621 2.168638
3620 2 -0.551527
3620 6 -0.013755
3620 3619 -10.297134
3620 3620 23.505973
3620 3621 -11.643556
3621 2 -8.623378
3621 3619 1.34218
3621 3620 -11.21258
3621 3621 19.493778
3622 2 -6.965767
3622 3357 -2.674898
3622 3622 19.725613
3622 3623 -11.217496
3622 3624 2.132548
3623 2 -0.549779
3623 6 -0.013755
3623 3622 -10.377019
3623 3623 23.520056
3623 3624 -11.579502
3624 2 -8.6243
3624 3622 1.380157
3624 3623 -11.217584
3624 3624 19.461727
3625 2 -1.332023
3625 3167 -1.216214
3625 3625 6.132483
3625 3626 -3.312824
3625 3627 0.728578
3626 2 -0.165209
3626 3166 -0.045872
3626 3625 -2.877962
3626 3626 7.710616
3626 3627 -3.621574
3627 2 -2.074493
3627 3353 -0.802472
3627 3625 0.29482
3627 3626 -3.333138
3627 3627 6.915283
3628 2 -1.007911
3628 3166 -1.216214
3628 3628 4.908897
3628 3629 -1.767919
3628 3630 0.083147
3629 2 -0.31317
3629 3167 -0.045872
3629 3628 -1.670556
3629 3629 5.091762
3629 3630 -2.062164
3630 2 -2.027766
3630 3357 -0.802472
3630 3628 -0.005634
3630 3629 -1.994374
3630 3630 5.830245
3631 2 -1.332025
3631 3167 -1.216214
3631 3631 6.132436
3631 3632 -3.312801
3631 3633 0.728603
3632 2 -0.165218
3632 3166 -0.045872
3632 3631 -2.877887
3632 3632 7.710581
3632 3633 -3.621604
3633 2 -1.470677
3633 3353 -1.216214
3633 3631 0.294787
3633 3632 -3.333124
3633 3633 6.725228
3634 2 -1.007911
3634 3166 -1.216214
3634 3634 4.908896
3634 3635 -1.767922
3634 3636 0.08315
3635 2 -0.31317
3635 3167 -0.045872
3635 3634 -1.670556
3635 3635 5.091768
3635 3636 -2.062171
3636 2 -1.42072
3636 3357 -1.216214
3636 3634 -0.005634
3636 3635 -1.994378
3636 3636 5.636945
3637 2 -1.332025
3637 3167 -1.216214
3637 3637 6.132436
3637 3638 -3.312801
3637 3639 0.728603
3638 2 -0.165218
3638 3166 -0.045872
3638 3637 -2.877887
3638 3638 7.710581
3638 3639 -3.621604
3639 2 -1.470677
3639 3353 -1.216214
3639 3637 0.294787
3639 3638 -3.333124
3639 3639 6.725228
3640 2 -1.007911
3640 3166 -1.216214
3640 3640 4.908896
3640 3641 -1.767922
3640 3642 0.08315
3641 2 -0.31317
3641 3167 -0.045872
3641 3640 -1.670556
3641 3641 5.091768
3641 3642 -2.062171
3642 2 -1.42072
3642 3357 -1.216214
3642 3640 -0.005634
3642 3641 -1.994378
3642 3642 5.636945
3643 2 -1.332025
3643 3167 -1.216214
3643 3643 6.132436
3643 3644 -3.312801
3643 3645 0.728603
3644 2 -0.165218
3644 3166 -0.045872
3644 3643 -2.877887
3644 3644 7.710581
3644 3645 -3.621604
3645 2 -1.470677
3645 3353 -1.216214
3645 3643 0.294787
3645 3644 -3.333124
3645 3645 6.725228
3646 2 -1.007911
3646 3166 -1.216214
3646 3646 4.908896
3646 3647 -1.767922
3646 3648 0.08315
3647 2 -0.31317
3647 3167 -0.045872
3647 3646 -1.670556
3647 3647 5.091768
3647 3648 -2.062171
3648 2 -1.42072
3648 3357 -1.216214
3648 3646 -0.005634
3648 3647 -1.994378
3648 3648 5.636945
3649 2 -1.332025
3649 3167 -1.216214
3649 3649 6.132436
3649 3650 -3.312801
3649 3651 0.728603
3650 2 -0.165218
3650 3166 -0.045872
3650 3649 -2.877887
3650 3650 7.710581
3650 3651 -3.621604
3651 2 -1.470677
3651 3353 -1.216214
3651 3649 0.294787
3651 3650 -3.333124
3651 3651 6.725228
3652 2 -1.007911
3652 3166 -1.216214
3652 3652 4.908896
3652 3653 -1.767922
3652 3654 0.08315
3653 2 -0.31317
3653 3167 -0.045872
3653 3652 -1.670556
3653 3653 5.091768
3653 3654 -2.062171
3654 2 -1.42072
3654 3357 -1.216214
3654 3652 -0.005634
3654 3653 -1.994378
3654 3654 5.636945
3655 2 -1.332023
3655 3167 -1.216214
3655 3655 6.132485
3655 3656 -3.312825
3655 3657 0.728577
3656 2 -0.165208
3656 3166 -0.045872
3656 3655 -2.877966
3656 3656 7.710618
3656 3657 -3.621572
3657 2 -2.409198
3657 3353 -0.789478
3657 3655 0.294821
3657 3656 -3.333139
3657 3657 7.236993
3658 2 -1.007911
3658 3166 -1.216214
3658 3658 4.908897
3658 3659 -1.767919
3658 3660 0.083147
3659 2 -0.31317
3659 3167 -0.045872
3659 3658 -1.670556
3659 3659 5.091761
3659 3660 -2.062164
3660 2 -2.365061
3660 3357 -0.789478
3660 3658 -0.005634
3660 3659 -1.994373
3660 3660 6.154546
3661 2 -0.705731
3661 3167 -0.608106
3661 3661 3.236201
3661 3662 -0.955121
3661 3663 0.032757
3662 2 -0.154717
3662 3162 -0.091743
3662 3661 -0.916258
3662 3662 3.174982
3662 3663 -1.012264
3663 2 -1.700932
3663 3661 -0.002127
3663 3662 -0.984475
3663 3663 3.687534
3664 2 -0.705731
3664 3167 -0.608106
3664 3664 3.236201
3664 3665 -0.955121
3664 3666 0.032757
3665 2 -0.154717
3665 3162 -0.091743
3665 3664 -0.916258
3665 3665 3.174982
3665 3666 -1.012264
3666 2 -1.700932
3666 3664 -0.002127
3666 3665 -0.984475
3666 3666 3.687534
3667 2 -0.566394
3667 3166 -0.608106
3667 3667 3.063411
3667 3668 -1.318119
3667 3669 0.429208
3668 2 -0.111488
3668 3164 -0.091743
3668 3667 -0.875324
3668 3668 3.971824
3668 3669 -1.893268
3669 2 -1.719742
3669 3667 -0.027574
3669 3668 -1.537781
3669 3669 4.285096
3670 2 -0.566394
3670 3166 -0.608106
3670 3670 3.063411
3670 3671 -1.318119
3670 3672 0.429208
3671 2 -0.111488
3671 3164 -0.091743
3671 3670 -0.875324
3671 3671 3.971824
3671 3672 -1.893268
3672 2 -1.719742
3672 3670 -0.027574
3672 3671 -1.537781
3672 3672 4.285096
3673 2 -2.397327
3673 3261 -2.837837
3673 3673 10.257247
3673 3674 -4.208681
3673 3675 0.186598
3674 2 -0.870375
3674 3167 -0.021413
3674 3673 -3.986774
3674 3674 10.674549
3674 3675 -4.795987
3675 2 -7.032627
3675 3673 -0.011732
3675 3674 -4.644356
3675 3675 12.688716
3676 2 -2.546213
3676 3265 -2.837837
3676 3676 11.085748
3676 3677 -7.099011
3676 3678 2.397314
3677 2 -0.546767
3677 3166 -0.021413
3677 3676 -4.777037
3677 3677 16.131776
3677 3678 -9.78656
3678 2 -7.159519
3678 3676 0.014576
3678 3677 -7.849685
3678 3678 15.994628
3679 2 -2.397327
3679 3261 -2.837837
3679 3679 10.257247
3679 3680 -4.208687
3679 3681 0.186605
3680 2 -0.870374
3680 3167 -0.021413
3680 3679 -3.986773
3680 3680 10.674563
3680 3681 -4.796003
3681 2 -5.939715
3681 3679 -0.011732
3681 3680 -4.644366
3681 3681 11.595814
3682 2 -2.546223
3682 3265 -2.837837
3682 3682 11.085731
3682 3683 -7.098983
3682 3684 2.397312
3683 2 -0.546799
3683 3166 -0.021413
3683 3682 -4.777016
3683 3683 16.131742
3683 3684 -9.786514
3684 2 -6.067307
3684 3682 0.014572
3684 3683 -7.849675
3684 3684 14.90241
3685 2 -2.397327
3685 3261 -2.837837
3685 3685 10.257247
3685 3686 -4.208687
3685 3687 0.186605
3686 2 -0.870374
3686 3167 -0.021413
3686 3685 -3.986773
3686 3686 10.674563
3686 3687 -4.796003
3687 2 -5.939715
3687 3685 -0.011732
3687 3686 -4.644366
3687 3687 11.595814
3688 2 -2.546223
3688 3265 -2.837837
3688 3688 11.085731
3688 3689 -7.098983
3688 3690 2.397312
3689 2 -0.546799
3689 3166 -0.021413
3689 3688 -4.777016
3689 3689 16.131742
3689 3690 -9.786514
3690 2 -6.067307
3690 3688 0.014572
3690 3689 -7.849675
3690 3690 14.90241
3691 2 -2.397327
3691 3261 -2.837837
3691 3691 10.257247
3691 3692 -4.208681
3691 3693 0.186598
3692 2 -0.870375
3692 3167 -0.021413
3692 3691 -3.986774
3692 3692 10.674549
3692 3693 -4.795987
3693 2 -7.032627
3693 3691 -0.011732
3693 3692 -4.644356
3693 3693 12.688716
3694 2 -2.546213
3694 3265 -2.837837
3694 3694 11.085748
3694 3695 -7.099011
3694 3696 2.397314
3695 2 -0.546767
3695 3166 -0.021413
3695 3694 -4.777037
3695 3695 16.131776
3695 3696 -9.78656
3696 2 -7.159519
3696 3694 0.014576
3696 3695 -7.849685
3696 3696 15.994628
3697 2 -2.527256
3697 16 -3.162165
3697 3697 11.056843
3697 3698 -7.00057
3697 3699 2.633148
3698 2 -0.682488
3698 3261 -0.019231
3698 3697 -4.284712
3698 3698 16.830675
3698 3699 -10.844244
3699 2 -7.928899
3699 3697 -0.163859
3699 3698 -8.564289
3699 3699 17.657047
3700 2 -3.129619
3700 15 -3.162165
3700 3700 12.385662
3700 3701 -7.818841
3700 3702 2.724964
3701 2 -0.619834
3701 3265 -0.019231
3701 3700 -5.155672
3701 3701 17.768946
3701 3702 -10.974209
3702 2 -7.96213
3702 3700 -0.022906
3702 3701 -8.716989
3702 3702 17.702025
3703 2 -2.527262
3703 16 -3.162165
3703 3703 11.056846
3703 3704 -7.000571
3703 3705 2.633152
3704 2 -0.682508
3704 3261 -0.019231
3704 3703 -4.284718
3704 3704 16.830678
3704 3705 -10.844221
3705 2 -6.721385
3705 3703 -0.163856
3705 3704 -8.564291
3705 3705 16.449532
3706 2 -3.129622
3706 15 -3.162165
3706 3706 12.385672
3706 3707 -7.818843
3706 3708 2.724959
3707 2 -0.619842
3707 3265 -0.019231
3707 3706 -5.155684
3707 3707 17.768949
3707 3708 -10.974192
3708 2 -6.754353
3708 3706 -0.022903
3708 3707 -8.716991
3708 3708 16.494246
3709 2 -2.527262
3709 16 -3.162165
3709 3709 11.056846
3709 3710 -7.000571
3709 3711 2.633152
3710 2 -0.682508
3710 3261 -0.019231
3710 3709 -4.284718
3710 3710 16.830678
3710 3711 -10.844221
3711 2 -6.721385
3711 3709 -0.163856
3711 3710 -8.564291
3711 3711 16.449532
3712 2 -3.129622
3712 15 -3.162165
3712 3712 12.385672
3712 3713 -7.818843
3712 3714 2.724959
3713 2 -0.619842
3713 3265 -0.019231
3713 3712 -5.155684
3713 3713 17.768949
3713 3714 -10.974192
3714 2 -6.754353
3714 3712 -0.022903
3714 3713 -8.716991
3714 3714 16.494246
3715 2 -2.527262
3715 16 -3.162165
3715 3715 11.056846
3715 3716 -7.000571
3715 3717 2.633152
3716 2 -0.682508
3716 3261 -0.019231
3716 3715 -4.284718
3716 3716 16.830678
3716 3717 -10.844221
3717 2 -6.721385
3717 3715 -0.163856
3717 3716 -8.564291
3717 3717 16.449532
3718 2 -3.129622
3718 15 -3.162165
3718 3718 12.385672
3718 3719 -7.818843
3718 3720 2.724959
3719 2 -0.619842
3719 3265 -0.019231
3719 3718 -5.155684
3719 3719 17.768949
3719 3720 -10.974192
3720 2 -6.754353
3720 3718 -0.022903
3720 3719 -8.716991
3720 3720 16.494246
3721 2 -2.527262
3721 16 -3.162165
3721 3721 11.056846
3721 3722 -7.000571
3721 3723 2.633152
3722 2 -0.682508
3722 3261 -0.019231
3722 3721 -4.284718
3722 3722 16.830678
3722 3723 -10.844221
3723 2 -6.721385
3723 3721 -0.163856
3723 3722 -8.564291
3723 3723 16.449532
3724 2 -3.129622
3724 15 -3.162165
3724 3724 12.385672
3724 3725 -7.818843
3724 3726 2.724959
3725 2 -0.619842
3725 3265 -0.019231
3725 3724 -5.155684
3725 3725 17.768949
3725 3726 -10.974192
3726 2 -6.754353
3726 3724 -0.022903
3726 3725 -8.716991
3726 3726 16.494246
3727 2 -2.527262
3727 16 -3.162165
3727 3727 11.056846
3727 3728 -7.000571
3727 3729 2.633152
3728 2 -0.682508
3728 3261 -0.019231
3728 3727 -4.284718
3728 3728 16.830678
3728 3729 -10.844221
3729 2 -6.721385
3729 3727 -0.163856
3729 3728 -8.564291
3729 3729 16.449532
3730 2 -3.129622
3730 15 -3.162165
3730 3730 12.385672
3730 3731 -7.818843
3730 3732 2.724959
3731 2 -0.619842
3731 3265 -0.019231
3731 3730 -5.155684
3731 3731 17.768949
3731 3732 -10.974192
3732 2 -6.754353
3732 3730 -0.022903
3732 3731 -8.716991
3732 3732 16.494246
3733 2 -2.527262
3733 16 -3.162165
3733 3733 11.056846
3733 3734 -7.000571
3733 3735 2.633152
3734 2 -0.682508
3734 3261 -0.019231
3734 3733 -4.284718
3734 3734 16.830678
3734 3735 -10.844221
3735 2 -6.721385
3735 3733 -0.163856
3735 3734 -8.564291
3735 3735 16.449532
3736 2 -3.129622
3736 15 -3.162165
3736 3736 12.385672
3736 3737 -7.818843
3736 3738 2.724959
3737 2 -0.619842
3737 3265 -0.019231
3737 3736 -5.155684
3737 3737 17.768949
3737 3738 -10.974192
3738 2 -6.754353
3738 3736 -0.022903
3738 3737 -8.716991
3738 3738 16.494246
3739 2 -2.527262
3739 16 -3.162165
3739 3739 11.056846
3739 3740 -7.000571
3739 3741 2.633152
3740 2 -0.682508
3740 3261 -0.019231
3740 3739 -4.284718
3740 3740 16.830678
3740 3741 -10.844221
3741 2 -6.721385
3741 3739 -0.163856
3741 3740 -8.564291
3741 3741 16.449532
3742 2 -3.129622
3742 15 -3.162165
3742 3742 12.385672
3742 3743 -7.818843
3742 3744 2.724959
3743 2 -0.619842
3743 3265 -0.019231
3743 3742 -5.155684
3743 3743 17.768949
3743 3744 -10.974192
3744 2 -6.754353
3744 3742 -0.022903
3744 3743 -8.716991
3744 3744 16.494246
3745 2 -2.527262
3745 16 -3.162165
3745 3745 11.056846
3745 3746 -7.000571
3745 3747 2.633152
3746 2 -0.682508
3746 3261 -0.019231
3746 3745 -4.284718
3746 3746 16.830678
3746 3747 -10.844221
3747 2 -6.721385
3747 3745 -0.163856
3747 3746 -8.564291
3747 3747 16.449532
3748 2 -3.129622
3748 15 -3.162165
3748 3748 12.385672
3748 3749 -7.818843
3748 3750 2.724959
3749 2 -0.619842
3749 3265 -0.019231
3749 3748 -5.155684
3749 3749 17.768949
3749 3750 -10.974192
3750 2 -6.754353
3750 3748 -0.022903
3750 3749 -8.716991
3750 3750 16.494246
3751 2 -2.527262
3751 16 -3.162165
3751 3751 11.056846
3751 3752 -7.000571
3751 3753 2.633152
3752 2 -0.682508
3752 3261 -0.019231
3752 3751 -4.284718
3752 3752 16.830678
3752 3753 -10.844221
3753 2 -6.721385
3753 3751 -0.163856
3753 3752 -8.564291
3753 3753 16.449532
3754 2 -3.129622
3754 15 -3.162165
3754 3754 12.385672
3754 3755 -7.818843
3754 3756 2.724959
3755 2 -0.619842
3755 3265 -0.019231
3755 3754 -5.155684
3755 3755 17.768949
3755 3756 -10.974192
3756 2 -6.754353
3756 3754 -0.022903
3756 3755 -8.716991
3756 3756 16.494246
3757 2 -4.12871
3757 16 -2.052634
3757 3757 11.5488
3757 3758 -7.000611
3757 3759 2.633155
3758 2 -0.682504
3758 3261 -0.019231
3758 3757 -4.284758
3758 3758 16.830719
3758 3759 -10.844226
3759 2 -6.721387
3759 3757 -0.163855
3759 3758 -8.564292
3759 3759 16.449534
3760 2 -5.137278
3760 15 -2.052634
3760 3760 13.284072
3760 3761 -7.81913
3760 3762 2.72497
3761 2 -0.619824
3761 3265 -0.019231
3761 3760 -5.156052
3761 3761 17.769313
3761 3762 -10.974207
3762 2 -6.754359
3762 3760 -0.0228
3762 3761 -8.717091
3762 3762 16.494249
3763 1 -1.759854
3763 5 -16.183075
3763 3162 -0.11236
3763 3763 19.055289
3764 1 -1.809457
3764 5 -17.419773
3764 3164 -0.11236
3764 3764 20.341589
3765 1 -1.759854
3765 5 -16.183075
3765 3162 -0.11236
3765 3765 19.055289
3766 1 -1.809457
3766 5 -17.419773
3766 3164 -0.11236
3766 3766 20.341589
3767 1 -1.759854
3767 5 -16.183075
3767 3162 -0.11236
3767 3767 19.055289
3768 1 -1.809457
3768 5 -17.419773
3768 3164 -0.11236
3768 3768 20.341589
3769 1 -1.751274
3769 5 -15.894802
3769 3167 -0.11236
3769 3769 18.758435
3770 1 -1.807566
3770 5 -17.420285
3770 3166 -0.11236
3770 3770 20.340211
3771 1 -1.751274
3771 5 -15.894802
3771 3167 -0.11236
3771 3771 18.758435
3772 1 -1.807566
3772 5 -17.420285
3772 3166 -0.11236
3772 3772 20.340211
3773 1 -1.751274
3773 5 -15.894802
3773 3167 -0.11236
3773 3773 18.758435
3774 1 -1.807566
3774 5 -17.420285
3774 3166 -0.11236
3774 3774 20.340211
3775 3162 -1.020408
3775 3775 2.020408
3775 7550 -1.0
3776 1 -19.606396
3776 3167 -27.7502
3776 3776 48.356596
3777 1 -19.606396
3777 3162 -27.7502
3777 3777 48.356596
3778 3164 -1.020408
3778 3778 2.020408
3778 7549 -1.0
3779 1 -19.606396
3779 3166 -27.7502
3779 3779 48.356596
3780 1 -19.606396
3780 3164 -27.7502
3780 3780 48.356596
3781 3165 -4.385965
3781 3781 5.385965
3781 7547 -1.0
3782 3168 -4.385965
3782 3782 5.385965
3782 7546 -1.0
3783 3783 5.385965
3783 3784 -4.385965
3783 7545 -1.0
3784 1 -16.8765
3784 2 -9.244
3784 4 -1.0705
3784 5 -2.0275
3784 3783 -4.385965
3784 3784 155.606038
3784 3789 -34.3644
3784 3791 -57.346
3784 4284 -0.091743
3784 4287 -0.091743
3784 4385 -0.11236
3784 4387 -0.11236
3784 4389 -0.11236
3784 4397 -1.020408
3784 4399 -27.7502
3785 3785 5.385965
3785 3786 -4.385965
3785 7548 -1.0
3786 1 -16.882
3786 2 -9.139
3786 4 -1.0705
3786 5 -2.094
3786 3785 -4.385965
3786 3786 155.555538
3786 3788 -34.3639
3786 3792 -57.329
3786 4290 -0.091743
3786 4293 -0.091743
3786 4386 -0.11236
3786 4388 -0.11236
3786 4390 -0.11236
3786 4400 -1.020408
3786 4402 -27.7502
3787 3787 5.385965
3787 4403 -4.385965
3787 7548 1.0
3788 1 -41.117
3788 2 -16.5255
3788 4 -25.0715
3788 5 -2.03
3788 6 -0.315
3788 3786 -34.3639
3788 3788 256.827596
3788 3789 -12.9405
3788 3792 -63.223
3788 3794 -0.045872
3788 3796 -0.789478
3788 3800 -0.045872
3788 3802 -1.216214
3788 3806 -0.045872
3788 3808 -1.216214
3788 3812 -0.045872
3788 3814 -1.216214
3788 3818 -0.045872
3788 3820 -1.216214
3788 3824 -0.045872
3788 3826 -1.216214
3788 3830 -0.045872
3788 3832 -1.216214
3788 3836 -0.045872
3788 3838 -1.216214
3788 3842 -0.045872
3788 3844 -1.216214
3788 3848 -0.045872
3788 3850 -1.216214
3788 3854 -0.045872
3788 3856 -1.216214
3788 3860 -0.045872
3788 3862 -1.216214
3788 3866 -0.045872
3788 3868 -1.216214
3788 3872 -0.045872
3788 3874 -1.216214
3788 3878 -0.045872
3788 3880 -1.216214
3788 3887 -1.522
3788 3975 -0.4245
3788 3979 -2.8285
3788 4248 -0.045872
3788 4250 -1.216214
3788 4254 -0.045872
3788 4256 -1.216214
3788 4260 -0.045872
3788 4262 -1.216214
3788 4266 -0.045872
3788 4268 -1.216214
3788 4272 -0.045872
3788 4274 -1.216214
3788 4278 -0.045872
3788 4280 -1.216214
3788 4289 -0.608106
3788 4292 -0.608106
3788 4299 -0.021413
3788 4305 -0.021413
3788 4311 -0.021413
3788 4317 -0.021413
3788 4392 -0.11236
3788 4394 -0.11236
3788 4396 -0.11236
3788 4401 -27.7502
3788 7543 1.0
3788 7547 1.0
3789 1 -41.1965
3789 2 -16.6505
3789 4 -25.0385
3789 5 -1.968
3789 6 -0.31
3789 3784 -34.3644
3789 3788 -12.9405
3789 3789 256.913596
3789 3791 -63.2005
3789 3793 -0.789478
3789 3797 -0.045872
3789 3799 -1.216214
3789 3803 -0.045872
3789 3805 -1.216214
3789 3809 -0.045872
3789 3811 -1.216214
3789 3815 -0.045872
3789 3817 -1.216214
3789 3821 -0.045872
3789 3823 -1.216214
3789 3827 -0.045872
3789 3829 -1.216214
3789 3833 -0.045872
3789 3835 -1.216214
3789 3839 -0.045872
3789 3841 -1.216214
3789 3845 -0.045872
3789 3847 -1.216214
3789 3851 -0.045872
3789 3853 -1.216214
3789 3857 -0.045872
3789 3859 -1.216214
3789 3863 -0.045872
3789 3865 -1.216214
3789 3869 -0.045872
3789 3871 -1.216214
3789 3875 -0.045872
3789 3877 -1.216214
3789 3881 -0.045872
3789 3883 -1.522
3789 3975 -2.832
3789 3979 -0.4245
3789 4247 -1.216214
3789 4251 -0.045872
3789 4253 -1.216214
3789 4257 -0.045872
3789 4259 -1.216214
3789 4263 -0.045872
3789 4265 -1.216214
3789 4269 -0.045872
3789 4271 -1.216214
3789 4275 -0.045872
3789 4277 -1.216214
3789 4281 -0.045872
3789 4283 -0.608106
3789 4286 -0.608106
3789 4296 -0.021413
3789 4302 -0.021413
3789 4308 -0.021413
3789 4314 -0.021413
3789 4391 -0.11236
3789 4393 -0.11236
3789 4395 -0.11236
3789 4398 -27.7502
3789 7544 1.0
3789 7546 1.0
3790 3790 5.385965
3790 4404 -4.385965
3790 7545 1.0
3791 1 -132.8115
3791 2 -194.2496
3791 4 -52.4615
3791 5 -55.2875
3791 13 -0.4625
3791 14 -0.4625
3791 3784 -57.346
3791 3789 -63.2005
3791 3791 557.2816
3792 1 -132.228
3792 2 -197.5526
3792 4 -52.4615
3792 5 -55.5525
3792 13 -0.531
3792 14 -0.531
3792 3786 -57.329
3792 3788 -63.223
3792 3792 560.4086
3793 4 -1.975931
3793 3789 -0.789478
3793 3793 5.262784
3793 3794 -2.342899
3793 3795 0.845524
3794 4 -0.368966
3794 3788 -0.045872
3794 3793 -1.5087
3794 3794 6.590625
3794 3795 -3.667088
3795 4 -2.920491
3795 3793 -0.074036
3795 3794 -2.971788
3795 3795 6.966315
3796 4 -2.433544
3796 3788 -0.789478
3796 3796 6.578591
3796 3797 -3.147156
3796 3798 0.791587
3797 4 -0.222123
3797 3789 -0.045872
3797 3796 -2.509657
3797 3797 7.471737
3797 3798 -3.694086
3798 4 -2.970705
3798 3796 0.180329
3798 3797 -3.21511
3798 3798 7.005486
3799 4 -1.215036
3799 3789 -1.216214
3799 3799 4.928624
3799 3800 -2.342898
3799 3801 0.845524
3800 4 -0.368966
3800 3788 -0.045872
3800 3799 -1.508699
3800 3800 6.590625
3800 3801 -3.667089
3801 4 -2.920491
3801 3799 -0.074036
3801 3800 -2.971789
3801 3801 6.966316
3802 4 -1.518168
3802 3788 -1.216214
3802 3802 6.089874
3802 3803 -3.147108
3802 3804 0.791615
3803 4 -0.222133
3803 3789 -0.045872
3803 3802 -2.509553
3803 3803 7.471679
3803 3804 -3.694122
3804 4 -2.9707
3804 3802 0.180285
3804 3803 -3.215086
3804 3804 7.005501
3805 4 -1.215036
3805 3789 -1.216214
3805 3805 4.928624
3805 3806 -2.342898
3805 3807 0.845524
3806 4 -0.368966
3806 3788 -0.045872
3806 3805 -1.508699
3806 3806 6.590625
3806 3807 -3.667089
3807 4 -2.920491
3807 3805 -0.074036
3807 3806 -2.971789
3807 3807 6.966316
3808 4 -1.518168
3808 3788 -1.216214
3808 3808 6.089874
3808 3809 -3.147108
3808 3810 0.791615
3809 4 -0.222133
3809 3789 -0.045872
3809 3808 -2.509553
3809 3809 7.471679
3809 3810 -3.694122
3810 4 -2.9707
3810 3808 0.180285
3810 3809 -3.215086
3810 3810 7.005501
3811 4 -1.215036
3811 3789 -1.216214
3811 3811 4.928624
3811 3812 -2.342898
3811 3813 0.845524
3812 4 -0.368966
3812 3788 -0.045872
3812 3811 -1.508699
3812 3812 6.590625
3812 3813 -3.667089
3813 4 -2.920491
3813 3811 -0.074036
3813 3812 -2.971789
3813 3813 6.966316
3814 4 -1.518168
3814 3788 -1.216214
3814 3814 6.089874
3814 3815 -3.147108
3814 3816 0.791615
3815 4 -0.222133
3815 3789 -0.045872
3815 3814 -2.509553
3815 3815 7.471679
3815 3816 -3.694122
3816 4 -2.9707
3816 3814 0.180285
3816 3815 -3.215086
3816 3816 7.005501
3817 4 -1.215036
3817 3789 -1.216214
3817 3817 4.928624
3817 3818 -2.342898
3817 3819 0.845524
3818 4 -0.368966
3818 3788 -0.045872
3818 3817 -1.508699
3818 3818 6.590625
3818 3819 -3.667089
3819 4 -2.920491
3819 3817 -0.074036
3819 3818 -2.971789
3819 3819 6.966316
3820 4 -1.518168
3820 3788 -1.216214
3820 3820 6.089874
3820 3821 -3.147108
3820 3822 0.791615
3821 4 -0.222133
3821 3789 -0.045872
3821 3820 -2.509553
3821 3821 7.471679
3821 3822 -3.694122
3822 4 -2.9707
3822 3820 0.180285
3822 3821 -3.215086
3822 3822 7.005501
3823 4 -1.215036
3823 3789 -1.216214
3823 3823 4.928624
3823 3824 -2.342898
3823 3825 0.845524
3824 4 -0.368966
3824 3788 -0.045872
3824 3823 -1.508699
3824 3824 6.590625
3824 3825 -3.667089
3825 4 -2.920491
3825 3823 -0.074036
3825 3824 -2.971789
3825 3825 6.966316
3826 4 -1.518168
3826 3788 -1.216214
3826 3826 6.089874
3826 3827 -3.147108
3826 3828 0.791615
3827 4 -0.222133
3827 3789 -0.045872
3827 3826 -2.509553
3827 3827 7.471679
3827 3828 -3.694122
3828 4 -2.9707
3828 3826 0.180285
3828 3827 -3.215086
3828 3828 7.005501
3829 4 -1.215036
3829 3789 -1.216214
3829 3829 4.928624
3829 3830 -2.342898
3829 3831 0.845524
3830 4 -0.368966
3830 3788 -0.045872
3830 3829 -1.508699
3830 3830 6.590625
3830 3831 -3.667089
3831 4 -2.920491
3831 3829 -0.074036
3831 3830 -2.971789
3831 3831 6.966316
3832 4 -1.518168
3832 3788 -1.216214
3832 3832 6.089874
3832 3833 -3.147108
3832 3834 0.791615
3833 4 -0.222133
3833 3789 -0.045872
3833 3832 -2.509553
3833 3833 7.471679
3833 3834 -3.694122
3834 4 -2.9707
3834 3832 0.180285
3834 3833 -3.215086
3834 3834 7.005501
3835 4 -1.215036
3835 3789 -1.216214
3835 3835 4.928624
3835 3836 -2.342898
3835 3837 0.845524
3836 4 -0.368966
3836 3788 -0.045872
3836 3835 -1.508699
3836 3836 6.590625
3836 3837 -3.667089
3837 4 -2.920491
3837 3835 -0.074036
3837 3836 -2.971789
3837 3837 6.966316
3838 4 -1.518168
3838 3788 -1.216214
3838 3838 6.089874
3838 3839 -3.147108
3838 3840 0.791615
3839 4 -0.222133
3839 3789 -0.045872
3839 3838 -2.509553
3839 3839 7.471679
3839 3840 -3.694122
3840 4 -2.9707
3840 3838 0.180285
3840 3839 -3.215086
3840 3840 7.005501
3841 4 -1.215036
3841 3789 -1.216214
3841 3841 4.928624
3841 3842 -2.342898
3841 3843 0.845524
3842 4 -0.368966
3842 3788 -0.045872
3842 3841 -1.508699
3842 3842 6.590625
3842 3843 -3.667089
3843 4 -2.920491
3843 3841 -0.074036
3843 3842 -2.971789
3843 3843 6.966316
3844 4 -1.518168
3844 3788 -1.216214
3844 3844 6.089874
3844 3845 -3.147108
3844 3846 0.791615
3845 4 -0.222133
3845 3789 -0.045872
3845 3844 -2.509553
3845 3845 7.471679
3845 3846 -3.694122
3846 4 -2.9707
3846 3844 0.180285
3846 3845 -3.215086
3846 3846 7.005501
3847 4 -1.215036
3847 3789 -1.216214
3847 3847 4.928624
3847 3848 -2.342898
3847 3849 0.845524
3848 4 -0.368966
3848 3788 -0.045872
3848 3847 -1.508699
3848 3848 6.590625
3848 3849 -3.667089
3849 4 -2.920491
3849 3847 -0.074036
3849 3848 -2.971789
3849 3849 6.966316
3850 4 -1.518168
3850 3788 -1.216214
3850 3850 6.089874
3850 3851 -3.147108
3850 3852 0.791615
3851 4 -0.222133
3851 3789 -0.045872
3851 3850 -2.509553
3851 3851 7.471679
3851 3852 -3.694122
3852 4 -2.9707
3852 3850 0.180285
3852 3851 -3.215086
3852 3852 7.005501
3853 4 -1.215036
3853 3789 -1.216214
3853 3853 4.928624
3853 3854 -2.342898
3853 3855 0.845524
3854 4 -0.368966
3854 3788 -0.045872
3854 3853 -1.508699
3854 3854 6.590625
3854 3855 -3.667089
3855 4 -2.920491
3855 3853 -0.074036
3855 3854 -2.971789
3855 3855 6.966316
3856 4 -1.518168
3856 3788 -1.216214
3856 3856 6.089874
3856 3857 -3.147108
3856 3858 0.791615
3857 4 -0.222133
3857 3789 -0.045872
3857 3856 -2.509553
3857 3857 7.471679
3857 3858 -3.694122
3858 4 -2.9707
3858 3856 0.180285
3858 3857 -3.215086
3858 3858 7.005501
3859 4 -1.215036
3859 3789 -1.216214
3859 3859 4.928624
3859 3860 -2.342898
3859 3861 0.845524
3860 4 -0.368966
3860 3788 -0.045872
3860 3859 -1.508699
3860 3860 6.590625
3860 3861 -3.667089
3861 4 -2.920491
3861 3859 -0.074036
3861 3860 -2.971789
3861 3861 6.966316
3862 4 -1.518168
3862 3788 -1.216214
3862 3862 6.089874
3862 3863 -3.147108
3862 3864 0.791615
3863 4 -0.222133
3863 3789 -0.045872
3863 3862 -2.509553
3863 3863 7.471679
3863 3864 -3.694122
3864 4 -2.9707
3864 3862 0.180285
3864 3863 -3.215086
3864 3864 7.005501
3865 4 -1.215036
3865 3789 -1.216214
3865 3865 4.928624
3865 3866 -2.342898
3865 3867 0.845524
3866 4 -0.368966
3866 3788 -0.045872
3866 3865 -1.508699
3866 3866 6.590625
3866 3867 -3.667089
3867 4 -2.920491
3867 3865 -0.074036
3867 3866 -2.971789
3867 3867 6.966316
3868 4 -1.518168
3868 3788 -1.216214
3868 3868 6.089874
3868 3869 -3.147108
3868 3870 0.791615
3869 4 -0.222133
3869 3789 -0.045872
3869 3868 -2.509553
3869 3869 7.471679
3869 3870 -3.694122
3870 4 -2.9707
3870 3868 0.180285
3870 3869 -3.215086
3870 3870 7.005501
3871 4 -1.215036
3871 3789 -1.216214
3871 3871 4.928624
3871 3872 -2.342898
3871 3873 0.845524
3872 4 -0.368966
3872 3788 -0.045872
3872 3871 -1.508699
3872 3872 6.590625
3872 3873 -3.667089
3873 4 -2.920491
3873 3871 -0.074036
3873 3872 -2.971789
3873 3873 6.966316
3874 4 -1.518168
3874 3788 -1.216214
3874 3874 6.089874
3874 3875 -3.147108
3874 3876 0.791615
3875 4 -0.222133
3875 3789 -0.045872
3875 3874 -2.509553
3875 3875 7.471679
3875 3876 -3.694122
3876 4 -2.9707
3876 3874 0.180285
3876 3875 -3.215086
3876 3876 7.005501
3877 4 -1.215035
3877 3789 -1.216214
3877 3877 4.928624
3877 3878 -2.342895
3877 3879 0.84552
3878 4 -0.368967
3878 3788 -0.045872
3878 3877 -1.508699
3878 3878 6.590618
3878 3879 -3.667081
3879 4 -3.557547
3879 3877 -0.074036
3879 3878 -2.971784
3879 3879 7.603366
3880 4 -1.518171
3880 3788 -1.216214
3880 3880 6.089905
3880 3881 -3.147128
3880 3882 0.791608
3881 4 -0.222125
3881 3789 -0.045872
3881 3880 -2.509592
3881 3881 7.471703
3881 3882 -3.694114
3882 4 -3.607654
3882 3880 0.180301
3882 3881 -3.215096
3882 3882 7.642449
3883 1 -17.2055
3883 2 -19.5265
3883 4 -5.6965
3883 6 -0.0405
3883 14 -2.847
3883 3789 -1.522
3883 3883 68.59008
3883 3884 -2.297298
3883 3891 -2.297298
3883 3897 -2.297298
3883 3903 -2.297298
3883 4295 -2.837837
3883 4301 -2.837837
3883 4307 -2.837837
3883 4313 -2.837837
3883 4320 -0.019231
3883 4326 -0.019231
3883 4332 -0.019231
3883 4338 -0.019231
3883 4344 -0.019231
3883 4350 -0.019231
3883 4356 -0.019231
3883 4362 -0.019231
3883 4368 -0.019231
3883 4374 -0.019231
3883 4380 -0.019231
3884 4 -2.63937
3884 3883 -2.297298
3884 3884 10.616178
3884 3885 -6.373717
3884 3886 1.694207
3885 2 -0.026455
3885 4 -0.498654
3885 3884 -5.056345
3885 3885 14.079669
3885 3886 -7.498216
3886 4 -6.601321
3886 3884 0.45727
3886 3885 -6.531991
3886 3886 13.676042
3887 1 -17.185
3887 2 -19.5575
3887 4 -5.6545
3887 6 -0.0345
3887 13 -2.8445
3887 3788 -1.522
3887 3887 68.55008
3887 3888 -2.297298
3887 3894 -2.297298
3887 3900 -2.297298
3887 3906 -2.297298
3887 4298 -2.837837
3887 4304 -2.837837
3887 4310 -2.837837
3887 4316 -2.837837
3887 4323 -0.019231
3887 4329 -0.019231
3887 4335 -0.019231
3887 4341 -0.019231
3887 4347 -0.019231
3887 4353 -0.019231
3887 4359 -0.019231
3887 4365 -0.019231
3887 4371 -0.019231
3887 4377 -0.019231
3887 4383 -0.019231
3888 4 -2.405826
3888 3887 -2.297298
3888 3888 9.518188
3888 3889 -5.74474
3888 3890 1.929676
3889 2 -0.026455
3889 4 -0.578489
3889 3888 -3.996922
3889 3889 13.380652
3889 3890 -7.778786
3890 4 -6.56039
3890 3888 0.05725
3890 3889 -6.273591
3890 3890 13.776731
3891 4 -2.639362
3891 3883 -2.297298
3891 3891 10.616091
3891 3892 -6.373659
3891 3893 1.694229
3892 2 -0.026455
3892 4 -0.498672
3892 3891 -5.056232
3892 3892 14.079603
3892 3893 -7.498243
3893 4 -5.494299
3893 3891 0.457224
3893 3892 -6.531961
3893 3893 12.569036
3894 4 -2.405827
3894 3887 -2.297298
3894 3894 9.518135
3894 3895 -5.744692
3894 3896 1.929682
3895 2 -0.026455
3895 4 -0.578497
3895 3894 -3.996865
3895 3895 13.380609
3895 3896 -7.778792
3896 4 -5.453444
3896 3894 0.057234
3896 3895 -6.273574
3896 3896 12.669784
3897 4 -2.639362
3897 3883 -2.297298
3897 3897 10.616091
3897 3898 -6.373659
3897 3899 1.694229
3898 2 -0.026455
3898 4 -0.498672
3898 3897 -5.056232
3898 3898 14.079603
3898 3899 -7.498243
3899 4 -5.494299
3899 3897 0.457224
3899 3898 -6.531961
3899 3899 12.569036
3900 4 -2.405827
3900 3887 -2.297298
3900 3900 9.518135
3900 3901 -5.744692
3900 3902 1.929682
3901 2 -0.026455
3901 4 -0.578497
3901 3900 -3.996865
3901 3901 13.380609
3901 3902 -7.778792
3902 4 -5.453444
3902 3900 0.057234
3902 3901 -6.273574
3902 3902 12.669784
3903 4 -2.63937
3903 3883 -2.297298
3903 3903 10.616178
3903 3904 -6.373717
3903 3905 1.694207
3904 2 -0.026455
3904 4 -0.498654
3904 3903 -5.056345
3904 3904 14.079669
3904 3905 -7.498216
3905 4 -6.601321
3905 3903 0.45727
3905 3904 -6.531991
3905 3905 13.676042
3906 4 -2.405826
3906 3887 -2.297298
3906 3906 9.518188
3906 3907 -5.74474
3906 3908 1.929676
3907 2 -0.026455
3907 4 -0.578489
3907 3906 -3.996922
3907 3907 13.380652
3907 3908 -7.778786
3908 4 -6.56039
3908 3906 0.05725
3908 3907 -6.273591
3908 3908 13.776731
3909 4 -5.242073
3909 14 -1.754386
3909 3909 14.025722
3909 3910 -7.788449
3909 3911 1.759185
3910 2 -0.022523
3910 4 -0.531731
3910 3909 -6.678839
3910 3910 16.731677
3910 3911 -8.498584
3911 4 -6.467073
3911 3909 0.875726
3911 3910 -7.842404
3911 3911 14.433752
3912 4 -4.302841
3912 13 -1.754386
3912 3912 11.134403
3912 3913 -6.402671
3912 3914 2.325494
3913 2 -0.022523
3913 4 -0.724079
3913 3912 -4.231507
3913 3913 15.18514
3913 3914 -9.207032
3914 4 -6.361367
3914 3912 -0.079162
3914 3913 -7.266687
3914 3914 14.707216
3915 4 -3.303283
3915 14 -2.702703
3915 3915 13.035112
3915 3916 -7.788385
3915 3917 1.759259
3916 2 -0.022523
3916 4 -0.531747
3916 3915 -6.678633
3916 3916 16.731596
3916 3917 -8.498694
3917 4 -6.467061
3917 3915 0.875622
3917 3916 -7.842365
3917 3917 14.433803
3918 4 -2.668781
3918 13 -2.702703
3918 3918 10.448529
3918 3919 -6.402548
3918 3920 2.325503
3919 2 -0.022523
3919 4 -0.724097
3919 3918 -4.231358
3919 3919 15.185014
3919 3920 -9.207037
3920 4 -6.361359
3920 3918 -0.079204
3920 3919 -7.266652
3920 3920 14.707215
3921 4 -3.303283
3921 14 -2.702703
3921 3921 13.035112
3921 3922 -7.788385
3921 3923 1.759259
3922 2 -0.022523
3922 4 -0.531747
3922 3921 -6.678633
3922 3922 16.731596
3922 3923 -8.498694
3923 4 -6.467061
3923 3921 0.875622
3923 3922 -7.842365
3923 3923 14.433803
3924 4 -2.668781
3924 13 -2.702703
3924 3924 10.448529
3924 3925 -6.402548
3924 3926 2.325503
3925 2 -0.022523
3925 4 -0.724097
3925 3924 -4.231358
3925 3925 15.185014
3925 3926 -9.207037
3926 4 -6.361359
3926 3924 -0.079204
3926 3925 -7.266652
3926 3926 14.707215
3927 4 -3.303283
3927 14 -2.702703
3927 3927 13.035112
3927 3928 -7.788385
3927 3929 1.759259
3928 2 -0.022523
3928 4 -0.531747
3928 3927 -6.678633
3928 3928 16.731596
3928 3929 -8.498694
3929 4 -6.467061
3929 3927 0.875622
3929 3928 -7.842365
3929 3929 14.433803
3930 4 -2.668781
3930 13 -2.702703
3930 3930 10.448529
3930 3931 -6.402548
3930 3932 2.325503
3931 2 -0.022523
3931 4 -0.724097
3931 3930 -4.231358
3931 3931 15.185014
3931 3932 -9.207037
3932 4 -6.361359
3932 3930 -0.079204
3932 3931 -7.266652
3932 3932 14.707215
3933 4 -3.303283
3933 14 -2.702703
3933 3933 13.035112
3933 3934 -7.788385
3933 3935 1.759259
3934 2 -0.022523
3934 4 -0.531747
3934 3933 -6.678633
3934 3934 16.731596
3934 3935 -8.498694
3935 4 -6.467061
3935 3933 0.875622
3935 3934 -7.842365
3935 3935 14.433803
3936 4 -2.668781
3936 13 -2.702703
3936 3936 10.448529
3936 3937 -6.402548
3936 3938 2.325503
3937 2 -0.022523
3937 4 -0.724097
3937 3936 -4.231358
3937 3937 15.185014
3937 3938 -9.207037
3938 4 -6.361359
3938 3936 -0.079204
3938 3937 -7.266652
3938 3938 14.707215
3939 4 -3.303283
3939 14 -2.702703
3939 3939 13.035112
3939 3940 -7.788385
3939 3941 1.759259
3940 2 -0.022523
3940 4 -0.531747
3940 3939 -6.678633
3940 3940 16.731596
3940 3941 -8.498694
3941 4 -6.467061
3941 3939 0.875622
3941 3940 -7.842365
3941 3941 14.433803
3942 4 -2.668781
3942 13 -2.702703
3942 3942 10.448529
3942 3943 -6.402548
3942 3944 2.325503
3943 2 -0.022523
3943 4 -0.724097
3943 3942 -4.231358
3943 3943 15.185014
3943 3944 -9.207037
3944 4 -6.361359
3944 3942 -0.079204
3944 3943 -7.266652
3944 3944 14.707215
3945 4 -3.303283
3945 14 -2.702703
3945 3945 13.035112
3945 3946 -7.788385
3945 3947 1.759259
3946 2 -0.022523
3946 4 -0.531747
3946 3945 -6.678633
3946 3946 16.731596
3946 3947 -8.498694
3947 4 -6.467061
3947 3945 0.875622
3947 3946 -7.842365
3947 3947 14.433803
3948 4 -2.668781
3948 13 -2.702703
3948 3948 10.448529
3948 3949 -6.402548
3948 3950 2.325503
3949 2 -0.022523
3949 4 -0.724097
3949 3948 -4.231358
3949 3949 15.185014
3949 3950 -9.207037
3950 4 -6.361359
3950 3948 -0.079204
3950 3949 -7.266652
3950 3950 14.707215
3951 4 -3.303283
3951 14 -2.702703
3951 3951 13.035112
3951 3952 -7.788385
3951 3953 1.759259
3952 2 -0.022523
3952 4 -0.531747
3952 3951 -6.678633
3952 3952 16.731596
3952 3953 -8.498694
3953 4 -6.467061
3953 3951 0.875622
3953 3952 -7.842365
3953 3953 14.433803
3954 4 -2.668781
3954 13 -2.702703
3954 3954 10.448529
3954 3955 -6.402548
3954 3956 2.325503
3955 2 -0.022523
3955 4 -0.724097
3955 3954 -4.231358
3955 3955 15.185014
3955 3956 -9.207037
3956 4 -6.361359
3956 3954 -0.079204
3956 3955 -7.266652
3956 3956 14.707215
3957 4 -3.303283
3957 14 -2.702703
3957 3957 13.035112
3957 3958 -7.788385
3957 3959 1.759259
3958 2 -0.022523
3958 4 -0.531747
3958 3957 -6.678633
3958 3958 16.731596
3958 3959 -8.498694
3959 4 -6.467061
3959 3957 0.875622
3959 3958 -7.842365
3959 3959 14.433803
3960 4 -2.668781
3960 13 -2.702703
3960 3960 10.448529
3960 3961 -6.402548
3960 3962 2.325503
3961 2 -0.022523
3961 4 -0.724097
3961 3960 -4.231358
3961 3961 15.185014
3961 3962 -9.207037
3962 4 -6.361359
3962 3960 -0.079204
3962 3961 -7.266652
3962 3962 14.707215
3963 4 -3.303283
3963 14 -2.702703
3963 3963 13.035112
3963 3964 -7.788385
3963 3965 1.759259
3964 2 -0.022523
3964 4 -0.531747
3964 3963 -6.678633
3964 3964 16.731596
3964 3965 -8.498694
3965 4 -6.467061
3965 3963 0.875622
3965 3964 -7.842365
3965 3965 14.433803
3966 4 -2.668781
3966 13 -2.702703
3966 3966 10.448529
3966 3967 -6.402548
3966 3968 2.325503
3967 2 -0.022523
3967 4 -0.724097
3967 3966 -4.231358
3967 3967 15.185014
3967 3968 -9.207037
3968 4 -6.361359
3968 3966 -0.079204
3968 3967 -7.266652
3968 3968 14.707215
3969 4 -3.303289
3969 14 -2.702703
3969 3969 13.035179
3969 3970 -7.788418
3969 3971 1.759231
3970 2 -0.022523
3970 4 -0.531728
3970 3969 -6.678733
3970 3970 16.731638
3970 3971 -8.498655
3971 4 -7.750483
3971 3969 0.875669
3971 3970 -7.842386
3971 3971 15.7172
3972 4 -2.668771
3972 13 -2.702703
3972 3972 10.448538
3972 3973 -6.402562
3972 3974 2.325497
3973 2 -0.022523
3973 4 -0.724097
3973 3972 -4.231363
3973 3973 15.185015
3973 3974 -9.207032
3974 4 -7.64456
3974 3972 -0.079206
3974 3973 -7.266656
3974 3974 15.990423
3975 1 -15.837
3975 2 -74.9745
3975 4 -1.555
3975 6 -11.935
3975 3788 -0.4245
3975 3789 -2.832
3975 3975 296.098563
3975 3976 -4.054065
3975 3979 -0.03
3975 3983 -4.054065
3975 3989 -4.054065
3975 3995 -4.054065
3975 4001 -4.054065
3975 4007 -4.054065
3975 4013 -4.054065
3975 4019 -4.054065
3975 4025 -4.054065
3975 4031 -4.054065
3975 4037 -4.054065
3975 4043 -4.054065
3975 4049 -4.054065
3975 4055 -4.054065
3975 4061 -4.054065
3975 4067 -4.054065
3975 4073 -4.054065
3975 4079 -4.054065
3975 4085 -4.054065
3975 4091 -4.054065
3975 4097 -4.054065
3975 4103 -4.054065
3975 4109 -4.054065
3975 4115 -4.054065
3975 4121 -4.054065
3975 4127 -4.054065
3975 4133 -4.054065
3975 4139 -4.054065
3975 4145 -4.054065
3975 4151 -4.054065
3975 4157 -4.054065
3975 4163 -4.054065
3975 4169 -4.054065
3975 4175 -4.054065
3975 4181 -4.054065
3975 4187 -4.054065
3975 4193 -4.054065
3975 4199 -4.054065
3975 4205 -4.054065
3975 4211 -4.054065
3975 4217 -4.054065
3975 4223 -4.054065
3975 4229 -4.054065
3975 4235 -4.054065
3975 4241 -2.674898
3975 4249 -0.802472
3975 4255 -1.216214
3975 4261 -1.216214
3975 4267 -1.216214
3975 4273 -1.216214
3975 4279 -0.789478
3976 2 -4.544032
3976 3975 -4.054065
3976 3976 18.634511
3976 3977 -11.206911
3976 3978 2.170497
3977 2 -0.55162
3977 6 -0.013755
3977 3976 -10.292958
3977 3977 23.505167
3977 3978 -11.646834
3978 2 -10.147618
3978 3976 1.34021
3978 3977 -11.212285
3978 3978 21.019693
3979 1 -15.7255
3979 2 -75.113
3979 4 -1.5575
3979 6 -11.9355
3979 3788 -2.8285
3979 3789 -0.4245
3979 3975 -0.03
3979 3979 296.125063
3979 3980 -4.054065
3979 3986 -4.054065
3979 3992 -4.054065
3979 3998 -4.054065
3979 4004 -4.054065
3979 4010 -4.054065
3979 4016 -4.054065
3979 4022 -4.054065
3979 4028 -4.054065
3979 4034 -4.054065
3979 4040 -4.054065
3979 4046 -4.054065
3979 4052 -4.054065
3979 4058 -4.054065
3979 4064 -4.054065
3979 4070 -4.054065
3979 4076 -4.054065
3979 4082 -4.054065
3979 4088 -4.054065
3979 4094 -4.054065
3979 4100 -4.054065
3979 4106 -4.054065
3979 4112 -4.054065
3979 4118 -4.054065
3979 4124 -4.054065
3979 4130 -4.054065
3979 4136 -4.054065
3979 4142 -4.054065
3979 4148 -4.054065
3979 4154 -4.054065
3979 4160 -4.054065
3979 4166 -4.054065
3979 4172 -4.054065
3979 4178 -4.054065
3979 4184 -4.054065
3979 4190 -4.054065
3979 4196 -4.054065
3979 4202 -4.054065
3979 4208 -4.054065
3979 4214 -4.054065
3979 4220 -4.054065
3979 4226 -4.054065
3979 4232 -4.054065
3979 4238 -4.054065
3979 4244 -2.674898
3979 4252 -0.802472
3979 4258 -1.216214
3979 4264 -1.216214
3979 4270 -1.216214
3979 4276 -1.216214
3979 4282 -0.789478
3980 2 -4.569944
3980 3979 -4.054065
3980 3980 18.709234
3980 3981 -11.217551
3980 3982 2.132326
3981 2 -0.549769
3981 6 -0.013755
3981 3980 -10.377501
3981 3981 23.520133
3981 3982 -11.579107
3982 2 -10.148619
3982 3980 1.380387
3982 3981 -11.21761
3982 3982 20.985842
3983 2 -4.544033
3983 3975 -4.054065
3983 3983 18.634498
3983 3984 -11.206907
3983 3985 2.170507
3984 2 -0.551621
3984 6 -0.013755
3984 3983 -10.292935
3984 3984 23.505163
3984 3985 -11.646851
3985 2 -8.62333
3985 3983 1.340199
3985 3984 -11.212283
3985 3985 19.495414
3986 2 -4.569944
3986 3979 -4.054065
3986 3986 18.709234
3986 3987 -11.217551
3986 3988 2.132326
3987 2 -0.549769
3987 6 -0.013755
3987 3986 -10.377501
3987 3987 23.520133
3987 3988 -11.579108
3988 2 -8.624305
3988 3986 1.380387
3988 3987 -11.21761
3988 3988 19.461528
3989 2 -4.544033
3989 3975 -4.054065
3989 3989 18.634498
3989 3990 -11.206907
3989 3991 2.170507
3990 2 -0.551621
3990 6 -0.013755
3990 3989 -10.292935
3990 3990 23.505163
3990 3991 -11.646851
3991 2 -8.62333
3991 3989 1.340199
3991 3990 -11.212283
3991 3991 19.495414
3992 2 -4.569944
3992 3979 -4.054065
3992 3992 18.709234
3992 3993 -11.217551
3992 3994 2.132326
3993 2 -0.549769
3993 6 -0.013755
3993 3992 -10.377501
3993 3993 23.520133
3993 3994 -11.579108
3994 2 -8.624305
3994 3992 1.380387
3994 3993 -11.21761
3994 3994 19.461528
3995 2 -4.544033
3995 3975 -4.054065
3995 3995 18.634498
3995 3996 -11.206907
3995 3997 2.170507
3996 2 -0.551621
3996 6 -0.013755
3996 3995 -10.292935
3996 3996 23.505163
3996 3997 -11.646851
3997 2 -8.62333
3997 3995 1.340199
3997 3996 -11.212283
3997 3997 19.495414
3998 2 -4.569944
3998 3979 -4.054065
3998 3998 18.709234
3998 3999 -11.217551
3998 4000 2.132326
3999 2 -0.549769
3999 6 -0.013755
3999 3998 -10.377501
3999 3999 23.520133
3999 4000 -11.579108
4000 2 -8.624305
4000 3998 1.380387
4000 3999 -11.21761
4000 4000 19.461528
4001 2 -4.544033
4001 3975 -4.054065
4001 4001 18.634498
4001 4002 -11.206907
4001 4003 2.170507
4002 2 -0.551621
4002 6 -0.013755
4002 4001 -10.292935
4002 4002 23.505163
4002 4003 -11.646851
4003 2 -8.62333
4003 4001 1.340199
4003 4002 -11.212283
4003 4003 19.495414
4004 2 -4.569944
4004 3979 -4.054065
4004 4004 18.709234
4004 4005 -11.217551
4004 4006 2.132326
4005 2 -0.549769
4005 6 -0.013755
4005 4004 -10.377501
4005 4005 23.520133
4005 4006 -11.579108
4006 2 -8.624305
4006 4004 1.380387
4006 4005 -11.21761
4006 4006 19.461528
4007 2 -4.544033
4007 3975 -4.054065
4007 4007 18.634498
4007 4008 -11.206907
4007 4009 2.170507
4008 2 -0.551621
4008 6 -0.013755
4008 4007 -10.292935
4008 4008 23.505163
4008 4009 -11.646851
4009 2 -8.62333
4009 4007 1.340199
4009 4008 -11.212283
4009 4009 19.495414
4010 2 -4.569944
4010 3979 -4.054065
4010 4010 18.709234
4010 4011 -11.217551
4010 4012 2.132326
4011 2 -0.549769
4011 6 -0.013755
4011 4010 -10.377501
4011 4011 23.520133
4011 4012 -11.579108
4012 2 -8.624305
4012 4010 1.380387
4012 4011 -11.21761
4012 4012 19.461528
4013 2 -4.544033
4013 3975 -4.054065
4013 4013 18.634498
4013 4014 -11.206907
4013 4015 2.170507
4014 2 -0.551621
4014 6 -0.013755
4014 4013 -10.292935
4014 4014 23.505163
4014 4015 -11.646851
4015 2 -8.62333
4015 4013 1.340199
4015 4014 -11.212283
4015 4015 19.495414
4016 2 -4.569944
4016 3979 -4.054065
4016 4016 18.709234
4016 4017 -11.217551
4016 4018 2.132326
4017 2 -0.549769
4017 6 -0.013755
4017 4016 -10.377501
4017 4017 23.520133
4017 4018 -11.579108
4018 2 -8.624305
4018 4016 1.380387
4018 4017 -11.21761
4018 4018 19.461528
4019 2 -4.544033
4019 3975 -4.054065
4019 4019 18.634498
4019 4020 -11.206907
4019 4021 2.170507
4020 2 -0.551621
4020 6 -0.013755
4020 4019 -10.292935
4020 4020 23.505163
4020 4021 -11.646851
4021 2 -8.62333
4021 4019 1.340199
4021 4020 -11.212283
4021 4021 19.495414
4022 2 -4.569944
4022 3979 -4.054065
4022 4022 18.709234
4022 4023 -11.217551
4022 4024 2.132326
4023 2 -0.549769
4023 6 -0.013755
4023 4022 -10.377501
4023 4023 23.520133
4023 4024 -11.579108
4024 2 -8.624305
4024 4022 1.380387
4024 4023 -11.21761
4024 4024 19.461528
4025 2 -4.544033
4025 3975 -4.054065
4025 4025 18.634498
4025 4026 -11.206907
4025 4027 2.170507
4026 2 -0.551621
4026 6 -0.013755
4026 4025 -10.292935
4026 4026 23.505163
4026 4027 -11.646851
4027 2 -8.62333
4027 4025 1.340199
4027 4026 -11.212283
4027 4027 19.495414
4028 2 -4.569944
4028 3979 -4.054065
4028 4028 18.709234
4028 4029 -11.217551
4028 4030 2.132326
4029 2 -0.549769
4029 6 -0.013755
4029 4028 -10.377501
4029 4029 23.520133
4029 4030 -11.579108
4030 2 -8.624305
4030 4028 1.380387
4030 4029 -11.21761
4030 4030 19.461528
4031 2 -4.544033
4031 3975 -4.054065
4031 4031 18.634498
4031 4032 -11.206907
4031 4033 2.170507
4032 2 -0.551621
4032 6 -0.013755
4032 4031 -10.292935
4032 4032 23.505163
4032 4033 -11.646851
4033 2 -8.62333
4033 4031 1.340199
4033 4032 -11.212283
4033 4033 19.495414
4034 2 -4.569944
4034 3979 -4.054065
4034 4034 18.709234
4034 4035 -11.217551
4034 4036 2.132326
4035 2 -0.549769
4035 6 -0.013755
4035 4034 -10.377501
4035 4035 23.520133
4035 4036 -11.579108
4036 2 -8.624305
4036 4034 1.380387
4036 4035 -11.21761
4036 4036 19.461528
4037 2 -4.544033
4037 3975 -4.054065
4037 4037 18.634498
4037 4038 -11.206907
4037 4039 2.170507
4038 2 -0.551621
4038 6 -0.013755
4038 4037 -10.292935
4038 4038 23.505163
4038 4039 -11.646851
4039 2 -8.62333
4039 4037 1.340199
4039 4038 -11.212283
4039 4039 19.495414
4040 2 -4.569944
4040 3979 -4.054065
4040 4040 18.709234
4040 4041 -11.217551
4040 4042 2.132326
4041 2 -0.549769
4041 6 -0.013755
4041 4040 -10.377501
4041 4041 23.520133
4041 4042 -11.579108
4042 2 -8.624305
4042 4040 1.380387
4042 4041 -11.21761
4042 4042 19.461528
4043 2 -4.544033
4043 3975 -4.054065
4043 4043 18.634498
4043 4044 -11.206907
4043 4045 2.170507
4044 2 -0.551621
4044 6 -0.013755
4044 4043 -10.292935
4044 4044 23.505163
4044 4045 -11.646851
4045 2 -8.62333
4045 4043 1.340199
4045 4044 -11.212283
4045 4045 19.495414
4046 2 -4.569944
4046 3979 -4.054065
4046 4046 18.709234
4046 4047 -11.217551
4046 4048 2.132326
4047 2 -0.549769
4047 6 -0.013755
4047 4046 -10.377501
4047 4047 23.520133
4047 4048 -11.579108
4048 2 -8.624305
4048 4046 1.380387
4048 4047 -11.21761
4048 4048 19.461528
4049 2 -4.544033
4049 3975 -4.054065
4049 4049 18.634498
4049 4050 -11.206907
4049 4051 2.170507
4050 2 -0.551621
4050 6 -0.013755
4050 4049 -10.292935
4050 4050 23.505163
4050 4051 -11.646851
4051 2 -8.62333
4051 4049 1.340199
4051 4050 -11.212283
4051 4051 19.495414
4052 2 -4.569944
4052 3979 -4.054065
4052 4052 18.709234
4052 4053 -11.217551
4052 4054 2.132326
4053 2 -0.549769
4053 6 -0.013755
4053 4052 -10.377501
4053 4053 23.520133
4053 4054 -11.579108
4054 2 -8.624305
4054 4052 1.380387
4054 4053 -11.21761
4054 4054 19.461528
4055 2 -4.544033
4055 3975 -4.054065
4055 4055 18.634498
4055 4056 -11.206907
4055 4057 2.170507
4056 2 -0.551621
4056 6 -0.013755
4056 4055 -10.292935
4056 4056 23.505163
4056 4057 -11.646851
4057 2 -8.62333
4057 4055 1.340199
4057 4056 -11.212283
4057 4057 19.495414
4058 2 -4.569944
4058 3979 -4.054065
4058 4058 18.709234
4058 4059 -11.217551
4058 4060 2.132326
4059 2 -0.549769
4059 6 -0.013755
4059 4058 -10.377501
4059 4059 23.520133
4059 4060 -11.579108
4060 2 -8.624305
4060 4058 1.380387
4060 4059 -11.21761
4060 4060 19.461528
4061 2 -4.544033
4061 3975 -4.054065
4061 4061 18.634498
4061 4062 -11.206907
4061 4063 2.170507
4062 2 -0.551621
4062 6 -0.013755
4062 4061 -10.292935
4062 4062 23.505163
4062 4063 -11.646851
4063 2 -8.62333
4063 4061 1.340199
4063 4062 -11.212283
4063 4063 19.495414
4064 2 -4.569944
4064 3979 -4.054065
4064 4064 18.709234
4064 4065 -11.217551
4064 4066 2.132326
4065 2 -0.549769
4065 6 -0.013755
4065 4064 -10.377501
4065 4065 23.520133
4065 4066 -11.579108
4066 2 -8.624305
4066 4064 1.380387
4066 4065 -11.21761
4066 4066 19.461528
4067 2 -4.544033
4067 3975 -4.054065
4067 4067 18.634498
4067 4068 -11.206907
4067 4069 2.170507
4068 2 -0.551621
4068 6 -0.013755
4068 4067 -10.292935
4068 4068 23.505163
4068 4069 -11.646851
4069 2 -8.62333
4069 4067 1.340199
4069 4068 -11.212283
4069 4069 19.495414
4070 2 -4.569944
4070 3979 -4.054065
4070 4070 18.709234
4070 4071 -11.217551
4070 4072 2.132326
4071 2 -0.549769
4071 6 -0.013755
4071 4070 -10.377501
4071 4071 23.520133
4071 4072 -11.579108
4072 2 -8.624305
4072 4070 1.380387
4072 4071 -11.21761
4072 4072 19.461528
4073 2 -4.544033
4073 3975 -4.054065
4073 4073 18.634498
4073 4074 -11.206907
4073 4075 2.170507
4074 2 -0.551621
4074 6 -0.013755
4074 4073 -10.292935
4074 4074 23.505163
4074 4075 -11.646851
4075 2 -8.62333
4075 4073 1.340199
4075 4074 -11.212283
4075 4075 19.495414
4076 2 -4.569944
4076 3979 -4.054065
4076 4076 18.709234
4076 4077 -11.217551
4076 4078 2.132326
4077 2 -0.549769
4077 6 -0.013755
4077 4076 -10.377501
4077 4077 23.520133
4077 4078 -11.579108
4078 2 -8.624305
4078 4076 1.380387
4078 4077 -11.21761
4078 4078 19.461528
4079 2 -4.544033
4079 3975 -4.054065
4079 4079 18.634498
4079 4080 -11.206907
4079 4081 2.170507
4080 2 -0.551621
4080 6 -0.013755
4080 4079 -10.292935
4080 4080 23.505163
4080 4081 -11.646851
4081 2 -8.62333
4081 4079 1.340199
4081 4080 -11.212283
4081 4081 19.495414
4082 2 -4.569944
4082 3979 -4.054065
4082 4082 18.709234
4082 4083 -11.217551
4082 4084 2.132326
4083 2 -0.549769
4083 6 -0.013755
4083 4082 -10.377501
4083 4083 23.520133
4083 4084 -11.579108
4084 2 -8.624305
4084 4082 1.380387
4084 4083 -11.21761
4084 4084 19.461528
4085 2 -4.544033
4085 3975 -4.054065
4085 4085 18.634498
4085 4086 -11.206907
4085 4087 2.170507
4086 2 -0.551621
4086 6 -0.013755
4086 4085 -10.292935
4086 4086 23.505163
4086 4087 -11.646851
4087 2 -8.62333
4087 4085 1.340199
4087 4086 -11.212283
4087 4087 19.495414
4088 2 -4.569944
4088 3979 -4.054065
4088 4088 18.709234
4088 4089 -11.217551
4088 4090 2.132326
4089 2 -0.549769
4089 6 -0.013755
4089 4088 -10.377501
4089 4089 23.520133
4089 4090 -11.579108
4090 2 -8.624305
4090 4088 1.380387
4090 4089 -11.21761
4090 4090 19.461528
4091 2 -4.544033
4091 3975 -4.054065
4091 4091 18.634498
4091 4092 -11.206907
4091 4093 2.170507
4092 2 -0.551621
4092 6 -0.013755
4092 4091 -10.292935
4092 4092 23.505163
4092 4093 -11.646851
4093 2 -8.62333
4093 4091 1.340199
4093 4092 -11.212283
4093 4093 19.495414
4094 2 -4.569944
4094 3979 -4.054065
4094 4094 18.709234
4094 4095 -11.217551
4094 4096 2.132326
4095 2 -0.549769
4095 6 -0.013755
4095 4094 -10.377501
4095 4095 23.520133
4095 4096 -11.579108
4096 2 -8.624305
4096 4094 1.380387
4096 4095 -11.21761
4096 4096 19.461528
4097 2 -4.544033
4097 3975 -4.054065
4097 4097 18.634498
4097 4098 -11.206907
4097 4099 2.170507
4098 2 -0.551621
4098 6 -0.013755
4098 4097 -10.292935
4098 4098 23.505163
4098 4099 -11.646851
4099 2 -8.62333
4099 4097 1.340199
4099 4098 -11.212283
4099 4099 19.495414
4100 2 -4.569944
4100 3979 -4.054065
4100 4100 18.709234
4100 4101 -11.217551
4100 4102 2.132326
4101 2 -0.549769
4101 6 -0.013755
4101 4100 -10.377501
4101 4101 23.520133
4101 4102 -11.579108
4102 2 -8.624305
4102 4100 1.380387
4102 4101 -11.21761
4102 4102 19.461528
4103 2 -4.544033
4103 3975 -4.054065
4103 4103 18.634498
4103 4104 -11.206907
4103 4105 2.170507
4104 2 -0.551621
4104 6 -0.013755
4104 4103 -10.292935
4104 4104 23.505163
4104 4105 -11.646851
4105 2 -8.62333
4105 4103 1.340199
4105 4104 -11.212283
4105 4105 19.495414
4106 2 -4.569944
4106 3979 -4.054065
4106 4106 18.709234
4106 4107 -11.217551
4106 4108 2.132326
4107 2 -0.549769
4107 6 -0.013755
4107 4106 -10.377501
4107 4107 23.520133
4107 4108 -11.579108
4108 2 -8.624305
4108 4106 1.380387
4108 4107 -11.21761
4108 4108 19.461528
4109 2 -4.544033
4109 3975 -4.054065
4109 4109 18.634498
4109 4110 -11.206907
4109 4111 2.170507
4110 2 -0.551621
4110 6 -0.013755
4110 4109 -10.292935
4110 4110 23.505163
4110 4111 -11.646851
4111 2 -8.62333
4111 4109 1.340199
4111 4110 -11.212283
4111 4111 19.495414
4112 2 -4.569944
4112 3979 -4.054065
4112 4112 18.709234
4112 4113 -11.217551
4112 4114 2.132326
4113 2 -0.549769
4113 6 -0.013755
4113 4112 -10.377501
4113 4113 23.520133
4113 4114 -11.579108
4114 2 -8.624305
4114 4112 1.380387
4114 4113 -11.21761
4114 4114 19.461528
4115 2 -4.544033
4115 3975 -4.054065
4115 4115 18.634498
4115 4116 -11.206907
4115 4117 2.170507
4116 2 -0.551621
4116 6 -0.013755
4116 4115 -10.292935
4116 4116 23.505163
4116 4117 -11.646851
4117 2 -8.62333
4117 4115 1.340199
4117 4116 -11.212283
4117 4117 19.495414
4118 2 -4.569944
4118 3979 -4.054065
4118 4118 18.709234
4118 4119 -11.217551
4118 4120 2.132326
4119 2 -0.549769
4119 6 -0.013755
4119 4118 -10.377501
4119 4119 23.520133
4119 4120 -11.579108
4120 2 -8.624305
4120 4118 1.380387
4120 4119 -11.21761
4120 4120 19.461528
4121 2 -4.544033
4121 3975 -4.054065
4121 4121 18.634498
4121 4122 -11.206907
4121 4123 2.170507
4122 2 -0.551621
4122 6 -0.013755
4122 4121 -10.292935
4122 4122 23.505163
4122 4123 -11.646851
4123 2 -8.62333
4123 4121 1.340199
4123 4122 -11.212283
4123 4123 19.495414
4124 2 -4.569944
4124 3979 -4.054065
4124 4124 18.709234
4124 4125 -11.217551
4124 4126 2.132326
4125 2 -0.549769
4125 6 -0.013755
4125 4124 -10.377501
4125 4125 23.520133
4125 4126 -11.579108
4126 2 -8.624305
4126 4124 1.380387
4126 4125 -11.21761
4126 4126 19.461528
4127 2 -4.544033
4127 3975 -4.054065
4127 4127 18.634498
4127 4128 -11.206907
4127 4129 2.170507
4128 2 -0.551621
4128 6 -0.013755
4128 4127 -10.292935
4128 4128 23.505163
4128 4129 -11.646851
4129 2 -8.62333
4129 4127 1.340199
4129 4128 -11.212283
4129 4129 19.495414
4130 2 -4.569944
4130 3979 -4.054065
4130 4130 18.709234
4130 4131 -11.217551
4130 4132 2.132326
4131 2 -0.549769
4131 6 -0.013755
4131 4130 -10.377501
4131 4131 23.520133
4131 4132 -11.579108
4132 2 -8.624305
4132 4130 1.380387
4132 4131 -11.21761
4132 4132 19.461528
4133 2 -4.544033
4133 3975 -4.054065
4133 4133 18.634498
4133 4134 -11.206907
4133 4135 2.170507
4134 2 -0.551621
4134 6 -0.013755
4134 4133 -10.292935
4134 4134 23.505163
4134 4135 -11.646851
4135 2 -8.62333
4135 4133 1.340199
4135 4134 -11.212283
4135 4135 19.495414
4136 2 -4.569944
4136 3979 -4.054065
4136 4136 18.709234
4136 4137 -11.217551
4136 4138 2.132326
4137 2 -0.549769
4137 6 -0.013755
4137 4136 -10.377501
4137 4137 23.520133
4137 4138 -11.579108
4138 2 -8.624305
4138 4136 1.380387
4138 4137 -11.21761
4138 4138 19.461528
4139 2 -4.544033
4139 3975 -4.054065
4139 4139 18.634498
4139 4140 -11.206907
4139 4141 2.170507
4140 2 -0.551621
4140 6 -0.013755
4140 4139 -10.292935
4140 4140 23.505163
4140 4141 -11.646851
4141 2 -8.62333
4141 4139 1.340199
4141 4140 -11.212283
4141 4141 19.495414
4142 2 -4.569944
4142 3979 -4.054065
4142 4142 18.709234
4142 4143 -11.217551
4142 4144 2.132326
4143 2 -0.549769
4143 6 -0.013755
4143 4142 -10.377501
4143 4143 23.520133
4143 4144 -11.579108
4144 2 -8.624305
4144 4142 1.380387
4144 4143 -11.21761
4144 4144 19.461528
4145 2 -4.544033
4145 3975 -4.054065
4145 4145 18.634498
4145 4146 -11.206907
4145 4147 2.170507
4146 2 -0.551621
4146 6 -0.013755
4146 4145 -10.292935
4146 4146 23.505163
4146 4147 -11.646851
4147 2 -8.62333
4147 4145 1.340199
4147 4146 -11.212283
4147 4147 19.495414
4148 2 -4.569944
4148 3979 -4.054065
4148 4148 18.709234
4148 4149 -11.217551
4148 4150 2.132326
4149 2 -0.549769
4149 6 -0.013755
4149 4148 -10.377501
4149 4149 23.520133
4149 4150 -11.579108
4150 2 -8.624305
4150 4148 1.380387
4150 4149 -11.21761
4150 4150 19.461528
4151 2 -4.544033
4151 3975 -4.054065
4151 4151 18.634498
4151 4152 -11.206907
4151 4153 2.170507
4152 2 -0.551621
4152 6 -0.013755
4152 4151 -10.292935
4152 4152 23.505163
4152 4153 -11.646851
4153 2 -8.62333
4153 4151 1.340199
4153 4152 -11.212283
4153 4153 19.495414
4154 2 -4.569944
4154 3979 -4.054065
4154 4154 18.709234
4154 4155 -11.217551
4154 4156 2.132326
4155 2 -0.549769
4155 6 -0.013755
4155 4154 -10.377501
4155 4155 23.520133
4155 4156 -11.579108
4156 2 -8.624305
4156 4154 1.380387
4156 4155 -11.21761
4156 4156 19.461528
4157 2 -4.544033
4157 3975 -4.054065
4157 4157 18.634498
4157 4158 -11.206907
4157 4159 2.170507
4158 2 -0.551621
4158 6 -0.013755
4158 4157 -10.292935
4158 4158 23.505163
4158 4159 -11.646851
4159 2 -8.62333
4159 4157 1.340199
4159 4158 -11.212283
4159 4159 19.495414
4160 2 -4.569944
4160 3979 -4.054065
4160 4160 18.709234
4160 4161 -11.217551
4160 4162 2.132326
4161 2 -0.549769
4161 6 -0.013755
4161 4160 -10.377501
4161 4161 23.520133
4161 4162 -11.579108
4162 2 -8.624305
4162 4160 1.380387
4162 4161 -11.21761
4162 4162 19.461528
4163 2 -4.544033
4163 3975 -4.054065
4163 4163 18.634498
4163 4164 -11.206907
4163 4165 2.170507
4164 2 -0.551621
4164 6 -0.013755
4164 4163 -10.292935
4164 4164 23.505163
4164 4165 -11.646851
4165 2 -8.62333
4165 4163 1.340199
4165 4164 -11.212283
4165 4165 19.495414
4166 2 -4.569944
4166 3979 -4.054065
4166 4166 18.709234
4166 4167 -11.217551
4166 4168 2.132326
4167 2 -0.549769
4167 6 -0.013755
4167 4166 -10.377501
4167 4167 23.520133
4167 4168 -11.579108
4168 2 -8.624305
4168 4166 1.380387
4168 4167 -11.21761
4168 4168 19.461528
4169 2 -4.544033
4169 3975 -4.054065
4169 4169 18.634498
4169 4170 -11.206907
4169 4171 2.170507
4170 2 -0.551621
4170 6 -0.013755
4170 4169 -10.292935
4170 4170 23.505163
4170 4171 -11.646851
4171 2 -8.62333
4171 4169 1.340199
4171 4170 -11.212283
4171 4171 19.495414
4172 2 -4.569944
4172 3979 -4.054065
4172 4172 18.709234
4172 4173 -11.217551
4172 4174 2.132326
4173 2 -0.549769
4173 6 -0.013755
4173 4172 -10.377501
4173 4173 23.520133
4173 4174 -11.579108
4174 2 -8.624305
4174 4172 1.380387
4174 4173 -11.21761
4174 4174 19.461528
4175 2 -4.544033
4175 3975 -4.054065
4175 4175 18.634498
4175 4176 -11.206907
4175 4177 2.170507
4176 2 -0.551621
4176 6 -0.013755
4176 4175 -10.292935
4176 4176 23.505163
4176 4177 -11.646851
4177 2 -8.62333
4177 4175 1.340199
4177 4176 -11.212283
4177 4177 19.495414
4178 2 -4.569944
4178 3979 -4.054065
4178 4178 18.709234
4178 4179 -11.217551
4178 4180 2.132326
4179 2 -0.549769
4179 6 -0.013755
4179 4178 -10.377501
4179 4179 23.520133
4179 4180 -11.579108
4180 2 -8.624305
4180 4178 1.380387
4180 4179 -11.21761
4180 4180 19.461528
4181 2 -4.544033
4181 3975 -4.054065
4181 4181 18.634498
4181 4182 -11.206907
4181 4183 2.170507
4182 2 -0.551621
4182 6 -0.013755
4182 4181 -10.292935
4182 4182 23.505163
4182 4183 -11.646851
4183 2 -8.62333
4183 4181 1.340199
4183 4182 -11.212283
4183 4183 19.495414
4184 2 -4.569944
4184 3979 -4.054065
4184 4184 18.709234
4184 4185 -11.217551
4184 4186 2.132326
4185 2 -0.549769
4185 6 -0.013755
4185 4184 -10.377501
4185 4185 23.520133
4185 4186 -11.579108
4186 2 -8.624305
4186 4184 1.380387
4186 4185 -11.21761
4186 4186 19.461528
4187 2 -4.544033
4187 3975 -4.054065
4187 4187 18.634498
4187 4188 -11.206907
4187 4189 2.170507
4188 2 -0.551621
4188 6 -0.013755
4188 4187 -10.292935
4188 4188 23.505163
4188 4189 -11.646851
4189 2 -8.62333
4189 4187 1.340199
4189 4188 -11.212283
4189 4189 19.495414
4190 2 -4.569944
4190 3979 -4.054065
4190 4190 18.709234
4190 4191 -11.217551
4190 4192 2.132326
4191 2 -0.549769
4191 6 -0.013755
4191 4190 -10.377501
4191 4191 23.520133
4191 4192 -11.579108
4192 2 -8.624305
4192 4190 1.380387
4192 4191 -11.21761
4192 4192 19.461528
4193 2 -4.544033
4193 3975 -4.054065
4193 4193 18.634498
4193 4194 -11.206907
4193 4195 2.170507
4194 2 -0.551621
4194 6 -0.013755
4194 4193 -10.292935
4194 4194 23.505163
4194 4195 -11.646851
4195 2 -8.62333
4195 4193 1.340199
4195 4194 -11.212283
4195 4195 19.495414
4196 2 -4.569944
4196 3979 -4.054065
4196 4196 18.709234
4196 4197 -11.217551
4196 4198 2.132326
4197 2 -0.549769
4197 6 -0.013755
4197 4196 -10.377501
4197 4197 23.520133
4197 4198 -11.579108
4198 2 -8.624305
4198 4196 1.380387
4198 4197 -11.21761
4198 4198 19.461528
4199 2 -4.544033
4199 3975 -4.054065
4199 4199 18.634498
4199 4200 -11.206907
4199 4201 2.170507
4200 2 -0.551621
4200 6 -0.013755
4200 4199 -10.292935
4200 4200 23.505163
4200 4201 -11.646851
4201 2 -8.62333
4201 4199 1.340199
4201 4200 -11.212283
4201 4201 19.495414
4202 2 -4.569944
4202 3979 -4.054065
4202 4202 18.709234
4202 4203 -11.217551
4202 4204 2.132326
4203 2 -0.549769
4203 6 -0.013755
4203 4202 -10.377501
4203 4203 23.520133
4203 4204 -11.579108
4204 2 -8.624305
4204 4202 1.380387
4204 4203 -11.21761
4204 4204 19.461528
4205 2 -4.544033
4205 3975 -4.054065
4205 4205 18.634498
4205 4206 -11.206907
4205 4207 2.170507
4206 2 -0.551621
4206 6 -0.013755
4206 4205 -10.292935
4206 4206 23.505163
4206 4207 -11.646851
4207 2 -8.62333
4207 4205 1.340199
4207 4206 -11.212283
4207 4207 19.495414
4208 2 -4.569944
4208 3979 -4.054065
4208 4208 18.709234
4208 4209 -11.217551
4208 4210 2.132326
4209 2 -0.549769
4209 6 -0.013755
4209 4208 -10.377501
4209 4209 23.520133
4209 4210 -11.579108
4210 2 -8.624305
4210 4208 1.380387
4210 4209 -11.21761
4210 4210 19.461528
4211 2 -4.544033
4211 3975 -4.054065
4211 4211 18.634498
4211 4212 -11.206907
4211 4213 2.170507
4212 2 -0.551621
4212 6 -0.013755
4212 4211 -10.292935
4212 4212 23.505163
4212 4213 -11.646851
4213 2 -8.62333
4213 4211 1.340199
4213 4212 -11.212283
4213 4213 19.495414
4214 2 -4.569944
4214 3979 -4.054065
4214 4214 18.709234
4214 4215 -11.217551
4214 4216 2.132326
4215 2 -0.549769
4215 6 -0.013755
4215 4214 -10.377501
4215 4215 23.520133
4215 4216 -11.579108
4216 2 -8.624305
4216 4214 1.380387
4216 4215 -11.21761
4216 4216 19.461528
4217 2 -4.544033
4217 3975 -4.054065
4217 4217 18.634498
4217 4218 -11.206907
4217 4219 2.170507
4218 2 -0.551621
4218 6 -0.013755
4218 4217 -10.292935
4218 4218 23.505163
4218 4219 -11.646851
4219 2 -8.62333
4219 4217 1.340199
4219 4218 -11.212283
4219 4219 19.495414
4220 2 -4.569944
4220 3979 -4.054065
4220 4220 18.709234
4220 4221 -11.217551
4220 4222 2.132326
4221 2 -0.549769
4221 6 -0.013755
4221 4220 -10.377501
4221 4221 23.520133
4221 4222 -11.579108
4222 2 -8.624305
4222 4220 1.380387
4222 4221 -11.21761
4222 4222 19.461528
4223 2 -4.544033
4223 3975 -4.054065
4223 4223 18.634498
4223 4224 -11.206907
4223 4225 2.170507
4224 2 -0.551621
4224 6 -0.013755
4224 4223 -10.292935
4224 4224 23.505163
4224 4225 -11.646851
4225 2 -8.62333
4225 4223 1.340199
4225 4224 -11.212283
4225 4225 19.495414
4226 2 -4.569944
4226 3979 -4.054065
4226 4226 18.709234
4226 4227 -11.217551
4226 4228 2.132326
4227 2 -0.549769
4227 6 -0.013755
4227 4226 -10.377501
4227 4227 23.520133
4227 4228 -11.579108
4228 2 -8.624305
4228 4226 1.380387
4228 4227 -11.21761
4228 4228 19.461528
4229 2 -4.544033
4229 3975 -4.054065
4229 4229 18.634498
4229 4230 -11.206907
4229 4231 2.170507
4230 2 -0.551621
4230 6 -0.013755
4230 4229 -10.292935
4230 4230 23.505163
4230 4231 -11.646851
4231 2 -8.62333
4231 4229 1.340199
4231 4230 -11.212283
4231 4231 19.495414
4232 2 -4.569944
4232 3979 -4.054065
4232 4232 18.709234
4232 4233 -11.217551
4232 4234 2.132326
4233 2 -0.549769
4233 6 -0.013755
4233 4232 -10.377501
4233 4233 23.520133
4233 4234 -11.579108
4234 2 -8.624305
4234 4232 1.380387
4234 4233 -11.21761
4234 4234 19.461528
4235 2 -4.544033
4235 3975 -4.054065
4235 4235 18.634498
4235 4236 -11.206907
4235 4237 2.170507
4236 2 -0.551621
4236 6 -0.013755
4236 4235 -10.292935
4236 4236 23.505163
4236 4237 -11.646851
4237 2 -8.62333
4237 4235 1.340199
4237 4236 -11.212283
4237 4237 19.495414
4238 2 -4.569944
4238 3979 -4.054065
4238 4238 18.709234
4238 4239 -11.217551
4238 4240 2.132326
4239 2 -0.549769
4239 6 -0.013755
4239 4238 -10.377501
4239 4239 23.520133
4239 4240 -11.579108
4240 2 -8.624305
4240 4238 1.380387
4240 4239 -11.21761
4240 4240 19.461528
4241 2 -6.926166
4241 3975 -2.674898
4241 4241 19.637481
4241 4242 -11.206911
4241 4243 2.170495
4242 2 -0.551621
4242 6 -0.013755
4242 4241 -10.292963
4242 4242 23.505168
4242 4243 -11.646829
4243 2 -8.62333
4243 4241 1.340212
4243 4242 -11.212285
4243 4243 19.495403
4244 2 -6.966002
4244 3979 -2.674898
4244 4244 19.726125
4244 4245 -11.217551
4244 4246 2.132326
4245 2 -0.549769
4245 6 -0.013755
4245 4244 -10.377501
4245 4245 23.520133
4245 4246 -11.579108
4246 2 -8.624305
4246 4244 1.380387
4246 4245 -11.21761
4246 4246 19.461528
4247 2 -1.317243
4247 3789 -1.216214
4247 4247 6.066509
4247 4248 -3.287367
4247 4249 0.754314
4248 2 -0.168188
4248 3788 -0.045872
4248 4247 -2.797195
4248 4248 7.673154
4248 4249 -3.6619
4249 2 -2.07288
4249 3975 -0.802472
4249 4247 0.26226
4249 4248 -3.318396
4249 4249 6.931487
4250 2 -1.019291
4250 3788 -1.216214
4250 4250 4.921883
4250 4251 -1.833301
4250 4252 0.146922
4251 2 -0.303801
4251 3789 -0.045872
4251 4250 -1.670781
4251 4251 5.227172
4251 4252 -2.206719
4252 2 -2.030866
4252 3979 -0.802472
4252 4250 -0.009945
4252 4251 -2.084223
4252 4252 5.927506
4253 2 -1.317244
4253 3789 -1.216214
4253 4253 6.066457
4253 4254 -3.287337
4253 4255 0.754338
4254 2 -0.168198
4254 3788 -0.045872
4254 4253 -2.797113
4254 4254 7.67311
4254 4255 -3.661927
4255 2 -1.469226
4255 3975 -1.216214
4255 4253 0.262226
4255 4254 -3.318378
4255 4255 6.741591
4256 2 -1.019291
4256 3788 -1.216214
4256 4256 4.921883
4256 4257 -1.833302
4256 4258 0.146924
4257 2 -0.303801
4257 3789 -0.045872
4257 4256 -1.670781
4257 4257 5.227175
4257 4258 -2.206722
4258 2 -1.423799
4258 3979 -1.216214
4258 4256 -0.009945
4258 4257 -2.084225
4258 4258 5.734183
4259 2 -1.317244
4259 3789 -1.216214
4259 4259 6.066457
4259 4260 -3.287337
4259 4261 0.754338
4260 2 -0.168198
4260 3788 -0.045872
4260 4259 -2.797113
4260 4260 7.67311
4260 4261 -3.661927
4261 2 -1.469226
4261 3975 -1.216214
4261 4259 0.262226
4261 4260 -3.318378
4261 4261 6.741591
4262 2 -1.019291
4262 3788 -1.216214
4262 4262 4.921883
4262 4263 -1.833302
4262 4264 0.146924
4263 2 -0.303801
4263 3789 -0.045872
4263 4262 -1.670781
4263 4263 5.227175
4263 4264 -2.206722
4264 2 -1.423799
4264 3979 -1.216214
4264 4262 -0.009945
4264 4263 -2.084225
4264 4264 5.734183
4265 2 -1.317244
4265 3789 -1.216214
4265 4265 6.066457
4265 4266 -3.287337
4265 4267 0.754338
4266 2 -0.168198
4266 3788 -0.045872
4266 4265 -2.797113
4266 4266 7.67311
4266 4267 -3.661927
4267 2 -1.469226
4267 3975 -1.216214
4267 4265 0.262226
4267 4266 -3.318378
4267 4267 6.741591
4268 2 -1.019291
4268 3788 -1.216214
4268 4268 4.921883
4268 4269 -1.833302
4268 4270 0.146924
4269 2 -0.303801
4269 3789 -0.045872
4269 4268 -1.670781
4269 4269 5.227175
4269 4270 -2.206722
4270 2 -1.423799
4270 3979 -1.216214
4270 4268 -0.009945
4270 4269 -2.084225
4270 4270 5.734183
4271 2 -1.317244
4271 3789 -1.216214
4271 4271 6.066457
4271 4272 -3.287337
4271 4273 0.754338
4272 2 -0.168198
4272 3788 -0.045872
4272 4271 -2.797113
4272 4272 7.67311
4272 4273 -3.661927
4273 2 -1.469226
4273 3975 -1.216214
4273 4271 0.262226
4273 4272 -3.318378
4273 4273 6.741591
4274 2 -1.019291
4274 3788 -1.216214
4274 4274 4.921883
4274 4275 -1.833302
4274 4276 0.146924
4275 2 -0.303801
4275 3789 -0.045872
4275 4274 -1.670781
4275 4275 5.227175
4275 4276 -2.206722
4276 2 -1.423799
4276 3979 -1.216214
4276 4274 -0.009945
4276 4275 -2.084225
4276 4276 5.734183
4277 2 -1.317243
4277 3789 -1.216214
4277 4277 6.066512
4277 4278 -3.287368
4277 4279 0.754313
4278 2 -0.168188
4278 3788 -0.045872
4278 4277 -2.797198
4278 4278 7.673156
4278 4279 -3.661899
4279 2 -2.407456
4279 3975 -0.789478
4279 4277 0.262262
4279 4278 -3.318397
4279 4279 7.253068
4280 2 -1.019291
4280 3788 -1.216214
4280 4280 4.921883
4280 4281 -1.833301
4280 4282 0.146922
4281 2 -0.303801
4281 3789 -0.045872
4281 4280 -1.670781
4281 4281 5.227172
4281 4282 -2.206718
4282 2 -2.368178
4282 3979 -0.789478
4282 4280 -0.009945
4282 4281 -2.084223
4282 4282 6.251823
4283 2 -0.697506
4283 3789 -0.608106
4283 4283 3.223544
4283 4284 -0.938762
4283 4285 0.020831
4284 2 -0.157915
4284 3784 -0.091743
4284 4283 -0.911802
4284 4284 3.146882
4284 4285 -0.985422
4285 2 -1.700081
4285 4283 -0.001358
4285 4284 -0.967826
4285 4285 3.669266
4286 2 -0.697506
4286 3789 -0.608106
4286 4286 3.223544
4286 4287 -0.938762
4286 4288 0.020831
4287 2 -0.157915
4287 3784 -0.091743
4287 4286 -0.911802
4287 4287 3.146882
4287 4288 -0.985422
4288 2 -1.700081
4288 4286 -0.001358
4288 4287 -0.967826
4288 4288 3.669266
4289 2 -0.572024
4289 3788 -0.608106
4289 4289 3.078949
4289 4290 -1.328766
4289 4291 0.429947
4290 2 -0.110832
4290 3786 -0.091743
4290 4289 -0.886099
4290 4290 3.982964
4290 4291 -1.894289
4291 2 -1.720003
4291 4289 -0.026886
4291 4290 -1.538613
4291 4291 4.285502
4292 2 -0.572024
4292 3788 -0.608106
4292 4292 3.078949
4292 4293 -1.328766
4292 4294 0.429947
4293 2 -0.110832
4293 3786 -0.091743
4293 4292 -0.886099
4293 4293 3.982964
4293 4294 -1.894289
4294 2 -1.720003
4294 4292 -0.026886
4294 4293 -1.538613
4294 4294 4.285502
4295 2 -2.340158
4295 3883 -2.837837
4295 4295 10.158158
4295 4296 -4.377302
4295 4297 0.397139
4296 2 -0.840775
4296 3789 -0.021413
4296 4295 -3.940722
4296 4296 11.075412
4296 4297 -5.272502
4297 2 -7.04221
4297 4295 -0.024961
4297 4296 -4.940878
4297 4297 13.008049
4298 2 -2.624846
4298 3887 -2.837837
4298 4298 11.398706
4298 4299 -7.322093
4298 4300 2.38607
4299 2 -0.532695
4299 3788 -0.021413
4299 4298 -5.092659
4299 4299 16.419059
4299 4300 -9.772293
4300 2 -7.16585
4300 4298 0.104729
4300 4299 -7.930074
4300 4300 15.991195
4301 2 -2.340158
4301 3883 -2.837837
4301 4301 10.158158
4301 4302 -4.377305
4301 4303 0.397142
4302 2 -0.840774
4302 3789 -0.021413
4302 4301 -3.940722
4302 4302 11.075419
4302 4303 -5.27251
4303 2 -5.949294
4303 4301 -0.024961
4303 4302 -4.940883
4303 4303 11.915137
4304 2 -2.624853
4304 3887 -2.837837
4304 4304 11.398649
4304 4305 -7.322031
4304 4306 2.386072
4305 2 -0.532725
4305 3788 -0.021413
4305 4304 -5.092584
4305 4305 16.418977
4305 4306 -9.772255
4306 2 -6.073577
4306 4304 0.104707
4306 4305 -7.930048
4306 4306 14.898918
4307 2 -2.340158
4307 3883 -2.837837
4307 4307 10.158158
4307 4308 -4.377305
4307 4309 0.397142
4308 2 -0.840774
4308 3789 -0.021413
4308 4307 -3.940722
4308 4308 11.075419
4308 4309 -5.27251
4309 2 -5.949294
4309 4307 -0.024961
4309 4308 -4.940883
4309 4309 11.915137
4310 2 -2.624853
4310 3887 -2.837837
4310 4310 11.398649
4310 4311 -7.322031
4310 4312 2.386072
4311 2 -0.532725
4311 3788 -0.021413
4311 4310 -5.092584
4311 4311 16.418977
4311 4312 -9.772255
4312 2 -6.073577
4312 4310 0.104707
4312 4311 -7.930048
4312 4312 14.898918
4313 2 -2.340158
4313 3883 -2.837837
4313 4313 10.158158
4313 4314 -4.377302
4313 4315 0.397139
4314 2 -0.840775
4314 3789 -0.021413
4314 4313 -3.940722
4314 4314 11.075412
4314 4315 -5.272502
4315 2 -7.04221
4315 4313 -0.024961
4315 4314 -4.940878
4315 4315 13.008049
4316 2 -2.624846
4316 3887 -2.837837
4316 4316 11.398706
4316 4317 -7.322093
4316 4318 2.38607
4317 2 -0.532695
4317 3788 -0.021413
4317 4316 -5.092659
4317 4317 16.419059
4317 4318 -9.772293
4318 2 -7.16585
4318 4316 0.104729
4318 4317 -7.930074
4318 4318 15.991195
4319 2 -2.551586
4319 14 -3.162165
4319 4319 11.179052
4319 4320 -7.101617
4319 4321 2.636317
4320 2 -0.670696
4320 3883 -0.019231
4320 4319 -4.384899
4320 4320 16.926767
4320 4321 -10.851941
4321 2 -7.930237
4321 4319 -0.162373
4321 4320 -8.567526
4321 4321 17.660136
4322 2 -3.049197
4322 13 -3.162165
4322 4322 11.929784
4322 4323 -7.392418
4322 4324 2.673996
4323 2 -0.656062
4323 3887 -0.019231
4323 4322 -4.668425
4323 4323 17.239686
4323 4324 -10.895968
4324 2 -7.95385
4324 4322 -0.145956
4324 4323 -8.570391
4324 4324 17.670197
4325 2 -2.551594
4325 14 -3.162165
4325 4325 11.179056
4325 4326 -7.101619
4325 4327 2.636321
4326 2 -0.670722
4326 3883 -0.019231
4326 4325 -4.384908
4326 4326 16.926771
4326 4327 -10.85191
4327 2 -6.722862
4327 4325 -0.162369
4327 4326 -8.567527
4327 4327 16.452758
4328 2 -3.049199
4328 13 -3.162165
4328 4328 11.92979
4328 4329 -7.39243
4328 4330 2.674004
4329 2 -0.656066
4329 3887 -0.019231
4329 4328 -4.668432
4329 4329 17.239708
4329 4330 -10.895979
4330 2 -6.746002
4330 4328 -0.145954
4330 4329 -8.570404
4330 4330 16.46236
4331 2 -2.551594
4331 14 -3.162165
4331 4331 11.179056
4331 4332 -7.101619
4331 4333 2.636321
4332 2 -0.670722
4332 3883 -0.019231
4332 4331 -4.384908
4332 4332 16.926771
4332 4333 -10.85191
4333 2 -6.722862
4333 4331 -0.162369
4333 4332 -8.567527
4333 4333 16.452758
4334 2 -3.049199
4334 13 -3.162165
4334 4334 11.92979
4334 4335 -7.39243
4334 4336 2.674004
4335 2 -0.656066
4335 3887 -0.019231
4335 4334 -4.668432
4335 4335 17.239708
4335 4336 -10.895979
4336 2 -6.746002
4336 4334 -0.145954
4336 4335 -8.570404
4336 4336 16.46236
4337 2 -2.551594
4337 14 -3.162165
4337 4337 11.179056
4337 4338 -7.101619
4337 4339 2.636321
4338 2 -0.670722
4338 3883 -0.019231
4338 4337 -4.384908
4338 4338 16.926771
4338 4339 -10.85191
4339 2 -6.722862
4339 4337 -0.162369
4339 4338 -8.567527
4339 4339 16.452758
4340 2 -3.049199
4340 13 -3.162165
4340 4340 11.92979
4340 4341 -7.39243
4340 4342 2.674004
4341 2 -0.656066
4341 3887 -0.019231
4341 4340 -4.668432
4341 4341 17.239708
4341 4342 -10.895979
4342 2 -6.746002
4342 4340 -0.145954
4342 4341 -8.570404
4342 4342 16.46236
4343 2 -2.551594
4343 14 -3.162165
4343 4343 11.179056
4343 4344 -7.101619
4343 4345 2.636321
4344 2 -0.670722
4344 3883 -0.019231
4344 4343 -4.384908
4344 4344 16.926771
4344 4345 -10.85191
4345 2 -6.722862
4345 4343 -0.162369
4345 4344 -8.567527
4345 4345 16.452758
4346 2 -3.049199
4346 13 -3.162165
4346 4346 11.92979
4346 4347 -7.39243
4346 4348 2.674004
4347 2 -0.656066
4347 3887 -0.019231
4347 4346 -4.668432
4347 4347 17.239708
4347 4348 -10.895979
4348 2 -6.746002
4348 4346 -0.145954
4348 4347 -8.570404
4348 4348 16.46236
4349 2 -2.551594
4349 14 -3.162165
4349 4349 11.179056
4349 4350 -7.101619
4349 4351 2.636321
4350 2 -0.670722
4350 3883 -0.019231
4350 4349 -4.384908
4350 4350 16.926771
4350 4351 -10.85191
4351 2 -6.722862
4351 4349 -0.162369
4351 4350 -8.567527
4351 4351 16.452758
4352 2 -3.049199
4352 13 -3.162165
4352 4352 11.92979
4352 4353 -7.39243
4352 4354 2.674004
4353 2 -0.656066
4353 3887 -0.019231
4353 4352 -4.668432
4353 4353 17.239708
4353 4354 -10.895979
4354 2 -6.746002
4354 4352 -0.145954
4354 4353 -8.570404
4354 4354 16.46236
4355 2 -2.551594
4355 14 -3.162165
4355 4355 11.179056
4355 4356 -7.101619
4355 4357 2.636321
4356 2 -0.670722
4356 3883 -0.019231
4356 4355 -4.384908
4356 4356 16.926771
4356 4357 -10.85191
4357 2 -6.722862
4357 4355 -0.162369
4357 4356 -8.567527
4357 4357 16.452758
4358 2 -3.049199
4358 13 -3.162165
4358 4358 11.92979
4358 4359 -7.39243
4358 4360 2.674004
4359 2 -0.656066
4359 3887 -0.019231
4359 4358 -4.668432
4359 4359 17.239708
4359 4360 -10.895979
4360 2 -6.746002
4360 4358 -0.145954
4360 4359 -8.570404
4360 4360 16.46236
4361 2 -2.551594
4361 14 -3.162165
4361 4361 11.179056
4361 4362 -7.101619
4361 4363 2.636321
4362 2 -0.670722
4362 3883 -0.019231
4362 4361 -4.384908
4362 4362 16.926771
4362 4363 -10.85191
4363 2 -6.722862
4363 4361 -0.162369
4363 4362 -8.567527
4363 4363 16.452758
4364 2 -3.049199
4364 13 -3.162165
4364 4364 11.92979
4364 4365 -7.39243
4364 4366 2.674004
4365 2 -0.656066
4365 3887 -0.019231
4365 4364 -4.668432
4365 4365 17.239708
4365 4366 -10.895979
4366 2 -6.746002
4366 4364 -0.145954
4366 4365 -8.570404
4366 4366 16.46236
4367 2 -2.551594
4367 14 -3.162165
4367 4367 11.179056
4367 4368 -7.101619
4367 4369 2.636321
4368 2 -0.670722
4368 3883 -0.019231
4368 4367 -4.384908
4368 4368 16.926771
4368 4369 -10.85191
4369 2 -6.722862
4369 4367 -0.162369
4369 4368 -8.567527
4369 4369 16.452758
4370 2 -3.049199
4370 13 -3.162165
4370 4370 11.92979
4370 4371 -7.39243
4370 4372 2.674004
4371 2 -0.656066
4371 3887 -0.019231
4371 4370 -4.668432
4371 4371 17.239708
4371 4372 -10.895979
4372 2 -6.746002
4372 4370 -0.145954
4372 4371 -8.570404
4372 4372 16.46236
4373 2 -2.551594
4373 14 -3.162165
4373 4373 11.179056
4373 4374 -7.101619
4373 4375 2.636321
4374 2 -0.670722
4374 3883 -0.019231
4374 4373 -4.384908
4374 4374 16.926771
4374 4375 -10.85191
4375 2 -6.722862
4375 4373 -0.162369
4375 4374 -8.567527
4375 4375 16.452758
4376 2 -3.049199
4376 13 -3.162165
4376 4376 11.92979
4376 4377 -7.39243
4376 4378 2.674004
4377 2 -0.656066
4377 3887 -0.019231
4377 4376 -4.668432
4377 4377 17.239708
4377 4378 -10.895979
4378 2 -6.746002
4378 4376 -0.145954
4378 4377 -8.570404
4378 4378 16.46236
4379 2 -4.16952
4379 14 -2.052634
4379 4379 11.687522
4379 4380 -7.101693
4379 4381 2.636326
4380 2 -0.670716
4380 3883 -0.019231
4380 4379 -4.384982
4380 4380 16.926847
4380 4381 -10.851918
4381 2 -6.722865
4381 4379 -0.162368
4381 4380 -8.567529
4381 4381 16.452762
4382 2 -5.011793
4382 13 -2.052634
4382 4382 12.782884
4382 4383 -7.392472
4382 4384 2.674014
4383 2 -0.656062
4383 3887 -0.019231
4383 4382 -4.668471
4383 4383 17.239757
4383 4384 -10.895992
4384 2 -6.746004
4384 4382 -0.145947
4384 4383 -8.570413
4384 4384 16.462364
4385 1 -1.753349
4385 5 -15.972018
4385 3784 -0.11236
4385 4385 18.837726
4386 1 -1.808149
4386 5 -17.420149
4386 3786 -0.11236
4386 4386 20.340658
4387 1 -1.753349
4387 5 -15.972018
4387 3784 -0.11236
4387 4387 18.837726
4388 1 -1.808149
4388 5 -17.420149
4388 3786 -0.11236
4388 4388 20.340658
4389 1 -1.753349
4389 5 -15.972018
4389 3784 -0.11236
4389 4389 18.837726
4390 1 -1.808149
4390 5 -17.420149
4390 3786 -0.11236
4390 4390 20.340658
4391 1 -1.760129
4391 5 -16.191155
4391 3789 -0.11236
4391 4391 19.063644
4392 1 -1.809561
4392 5 -17.419738
4392 3788 -0.11236
4392 4392 20.341659
4393 1 -1.760129
4393 5 -16.191155
4393 3789 -0.11236
4393 4393 19.063644
4394 1 -1.809561
4394 5 -17.419738
4394 3788 -0.11236
4394 4394 20.341659
4395 1 -1.760129
4395 5 -16.191155
4395 3789 -0.11236
4395 4395 19.063644
4396 1 -1.809561
4396 5 -17.419738
4396 3788 -0.11236
4396 4396 20.341659
4397 3784 -1.020408
4397 4397 2.020408
4397 7544 -1.0
4398 1 -19.606396
4398 3789 -27.7502
4398 4398 48.356596
4399 1 -19.606396
4399 3784 -27.7502
4399 4399 48.356596
4400 3786 -1.020408
4400 4400 2.020408
4400 7543 -1.0
4401 1 -19.606396
4401 3788 -27.7502
4401 4401 48.356596
4402 1 -19.606396
4402 3786 -27.7502
4402 4402 48.356596
4403 3787 -4.385965
4403 4403 5.385965
4403 7541 -1.0
4404 3790 -4.385965
4404 4404 5.385965
4404 7540 -1.0
4405 4405 5.385965
4405 4406 -4.385965
4405 7539 -1.0
4406 1 -16.8765
4406 2 -9.244
4406 4 -1.0705
4406 5 -2.0275
4406 4405 -4.385965
4406 4406 155.606038
4406 4411 -34.3644
4406 4413 -57.346
4406 4906 -0.091743
4406 4909 -0.091743
4406 5007 -0.11236
4406 5009 -0.11236
4406 5011 -0.11236
4406 5019 -1.020408
4406 5021 -27.7502
4407 4407 5.385965
4407 4408 -4.385965
4407 7542 -1.0
4408 1 -16.882
4408 2 -9.139
4408 4 -1.0705
4408 5 -2.094
4408 4407 -4.385965
4408 4408 155.555538
4408 4410 -34.3639
4408 4414 -57.329
4408 4912 -0.091743
4408 4915 -0.091743
4408 5008 -0.11236
4408 5010 -0.11236
4408 5012 -0.11236
4408 5022 -1.020408
4408 5024 -27.7502
4409 4409 5.385965
4409 5025 -4.385965
4409 7542 1.0
4410 1 -41.117
4410 2 -16.5255
4410 4 -25.0715
4410 5 -2.03
4410 6 -0.315
4410 4408 -34.3639
4410 4410 256.827596
4410 4411 -12.9405
4410 4414 -63.223
4410 4416 -0.045872
4410 4418 -0.789478
4410 4422 -0.045872
4410 4424 -1.216214
4410 4428 -0.045872
4410 4430 -1.216214
4410 4434 -0.045872
4410 4436 -1.216214
4410 4440 -0.045872
4410 4442 -1.216214
4410 4446 -0.045872
4410 4448 -1.216214
4410 4452 -0.045872
4410 4454 -1.216214
4410 4458 -0.045872
4410 4460 -1.216214
4410 4464 -0.045872
4410 4466 -1.216214
4410 4470 -0.045872
4410 4472 -1.216214
4410 4476 -0.045872
4410 4478 -1.216214
4410 4482 -0.045872
4410 4484 -1.216214
4410 4488 -0.045872
4410 4490 -1.216214
4410 4494 -0.045872
4410 4496 -1.216214
4410 4500 -0.045872
4410 4502 -1.216214
4410 4509 -1.522
4410 4597 -0.4245
4410 4601 -2.8285
4410 4870 -0.045872
4410 4872 -1.216214
4410 4876 -0.045872
4410 4878 -1.216214
4410 4882 -0.045872
4410 4884 -1.216214
4410 4888 -0.045872
4410 4890 -1.216214
4410 4894 -0.045872
4410 4896 -1.216214
4410 4900 -0.045872
4410 4902 -1.216214
4410 4911 -0.608106
4410 4914 -0.608106
4410 4921 -0.021413
4410 4927 -0.021413
4410 4933 -0.021413
4410 4939 -0.021413
4410 5014 -0.11236
4410 5016 -0.11236
4410 5018 -0.11236
4410 5023 -27.7502
4410 7537 1.0
4410 7541 1.0
4411 1 -41.1965
4411 2 -16.6505
4411 4 -25.0385
4411 5 -1.968
4411 6 -0.31
4411 4406 -34.3644
4411 4410 -12.9405
4411 4411 256.913596
4411 4413 -63.2005
4411 4415 -0.789478
4411 4419 -0.045872
4411 4421 -1.216214
4411 4425 -0.045872
4411 4427 -1.216214
4411 4431 -0.045872
4411 4433 -1.216214
4411 4437 -0.045872
4411 4439 -1.216214
4411 4443 -0.045872
4411 4445 -1.216214
4411 4449 -0.045872
4411 4451 -1.216214
4411 4455 -0.045872
4411 4457 -1.216214
4411 4461 -0.045872
4411 4463 -1.216214
4411 4467 -0.045872
4411 4469 -1.216214
4411 4473 -0.045872
4411 4475 -1.216214
4411 4479 -0.045872
4411 4481 -1.216214
4411 4485 -0.045872
4411 4487 -1.216214
4411 4491 -0.045872
4411 4493 -1.216214
4411 4497 -0.045872
4411 4499 -1.216214
4411 4503 -0.045872
4411 4505 -1.522
4411 4597 -2.832
4411 4601 -0.4245
4411 4869 -1.216214
4411 4873 -0.045872
4411 4875 -1.216214
4411 4879 -0.045872
4411 4881 -1.216214
4411 4885 -0.045872
4411 4887 -1.216214
4411 4891 -0.045872
4411 4893 -1.216214
4411 4897 -0.045872
4411 4899 -1.216214
4411 4903 -0.045872
4411 4905 -0.608106
4411 4908 -0.608106
4411 4918 -0.021413
4411 4924 -0.021413
4411 4930 -0.021413
4411 4936 -0.021413
4411 5013 -0.11236
4411 5015 -0.11236
4411 5017 -0.11236
4411 5020 -27.7502
4411 7538 1.0
4411 7540 1.0
4412 4412 5.385965
4412 5026 -4.385965
4412 7539 1.0
4413 1 -132.8115
4413 2 -194.2496
4413 4 -52.4615
4413 5 -55.2875
4413 11 -0.4625
4413 12 -0.4625
4413 4406 -57.346
4413 4411 -63.2005
4413 4413 557.2816
4414 1 -132.228
4414 2 -197.5526
4414 4 -52.4615
4414 5 -55.5525
4414 11 -0.531
4414 12 -0.531
4414 4408 -57.329
4414 4410 -63.223
4414 4414 560.4086
4415 4 -1.958373
4415 4411 -0.789478
4415 4415 5.244166
4415 4416 -2.290768
4415 4417 0.794453
4416 4 -0.384745
4416 4410 -0.045872
4416 4415 -1.504811
4416 4416 6.493275
4416 4417 -3.557848
4417 4 -2.91156
4417 4415 -0.069574
4417 4416 -2.90709
4417 4417 6.888224
4418 4 -2.469983
4418 4410 -0.789478
4418 4418 6.693946
4418 4419 -3.193645
4418 4420 0.75916
4419 4 -0.21305
4419 4411 -0.045872
4419 4418 -2.615117
4419 4419 7.527021
4419 4420 -3.652983
4420 4 -2.97535
4420 4418 0.226759
4420 4419 -3.238865
4420 4420 6.987456
4421 4 -1.202201
4421 4411 -1.216214
4421 4421 4.914728
4421 4422 -2.290767
4421 4423 0.794454
4422 4 -0.384745
4422 4410 -0.045872
4422 4421 -1.50481
4422 4422 6.493276
4422 4423 -3.55785
4423 4 -2.91156
4423 4421 -0.069574
4423 4422 -2.907092
4423 4423 6.888225
4424 4 -1.543061
4424 4410 -1.216214
4424 4424 6.193707
4424 4425 -3.193615
4424 4426 0.759183
4425 4 -0.213057
4425 4411 -0.045872
4425 4424 -2.615043
4425 4425 7.526984
4425 4426 -3.653013
4426 4 -2.975346
4426 4424 0.226725
4426 4425 -3.238849
4426 4426 6.98747
4427 4 -1.202201
4427 4411 -1.216214
4427 4427 4.914728
4427 4428 -2.290767
4427 4429 0.794454
4428 4 -0.384745
4428 4410 -0.045872
4428 4427 -1.50481
4428 4428 6.493276
4428 4429 -3.55785
4429 4 -2.91156
4429 4427 -0.069574
4429 4428 -2.907092
4429 4429 6.888225
4430 4 -1.543061
4430 4410 -1.216214
4430 4430 6.193707
4430 4431 -3.193615
4430 4432 0.759183
4431 4 -0.213057
4431 4411 -0.045872
4431 4430 -2.615043
4431 4431 7.526984
4431 4432 -3.653013
4432 4 -2.975346
4432 4430 0.226725
4432 4431 -3.238849
4432 4432 6.98747
4433 4 -1.202201
4433 4411 -1.216214
4433 4433 4.914728
4433 4434 -2.290767
4433 4435 0.794454
4434 4 -0.384745
4434 4410 -0.045872
4434 4433 -1.50481
4434 4434 6.493276
4434 4435 -3.55785
4435 4 -2.91156
4435 4433 -0.069574
4435 4434 -2.907092
4435 4435 6.888225
4436 4 -1.543061
4436 4410 -1.216214
4436 4436 6.193707
4436 4437 -3.193615
4436 4438 0.759183
4437 4 -0.213057
4437 4411 -0.045872
4437 4436 -2.615043
4437 4437 7.526984
4437 4438 -3.653013
4438 4 -2.975346
4438 4436 0.226725
4438 4437 -3.238849
4438 4438 6.98747
4439 4 -1.202201
4439 4411 -1.216214
4439 4439 4.914728
4439 4440 -2.290767
4439 4441 0.794454
4440 4 -0.384745
4440 4410 -0.045872
4440 4439 -1.50481
4440 4440 6.493276
4440 4441 -3.55785
4441 4 -2.91156
4441 4439 -0.069574
4441 4440 -2.907092
4441 4441 6.888225
4442 4 -1.543061
4442 4410 -1.216214
4442 4442 6.193707
4442 4443 -3.193615
4442 4444 0.759183
4443 4 -0.213057
4443 4411 -0.045872
4443 4442 -2.615043
4443 4443 7.526984
4443 4444 -3.653013
4444 4 -2.975346
4444 4442 0.226725
4444 4443 -3.238849
4444 4444 6.98747
4445 4 -1.202201
4445 4411 -1.216214
4445 4445 4.914728
4445 4446 -2.290767
4445 4447 0.794454
4446 4 -0.384745
4446 4410 -0.045872
4446 4445 -1.50481
4446 4446 6.493276
4446 4447 -3.55785
4447 4 -2.91156
4447 4445 -0.069574
4447 4446 -2.907092
4447 4447 6.888225
4448 4 -1.543061
4448 4410 -1.216214
4448 4448 6.193707
4448 4449 -3.193615
4448 4450 0.759183
4449 4 -0.213057
4449 4411 -0.045872
4449 4448 -2.615043
4449 4449 7.526984
4449 4450 -3.653013
4450 4 -2.975346
4450 4448 0.226725
4450 4449 -3.238849
4450 4450 6.98747
4451 4 -1.202201
4451 4411 -1.216214
4451 4451 4.914728
4451 4452 -2.290767
4451 4453 0.794454
4452 4 -0.384745
4452 4410 -0.045872
4452 4451 -1.50481
4452 4452 6.493276
4452 4453 -3.55785
4453 4 -2.91156
4453 4451 -0.069574
4453 4452 -2.907092
4453 4453 6.888225
4454 4 -1.543061
4454 4410 -1.216214
4454 4454 6.193707
4454 4455 -3.193615
4454 4456 0.759183
4455 4 -0.213057
4455 4411 -0.045872
4455 4454 -2.615043
4455 4455 7.526984
4455 4456 -3.653013
4456 4 -2.975346
4456 4454 0.226725
4456 4455 -3.238849
4456 4456 6.98747
4457 4 -1.202201
4457 4411 -1.216214
4457 4457 4.914728
4457 4458 -2.290767
4457 4459 0.794454
4458 4 -0.384745
4458 4410 -0.045872
4458 4457 -1.50481
4458 4458 6.493276
4458 4459 -3.55785
4459 4 -2.91156
4459 4457 -0.069574
4459 4458 -2.907092
4459 4459 6.888225
4460 4 -1.543061
4460 4410 -1.216214
4460 4460 6.193707
4460 4461 -3.193615
4460 4462 0.759183
4461 4 -0.213057
4461 4411 -0.045872
4461 4460 -2.615043
4461 4461 7.526984
4461 4462 -3.653013
4462 4 -2.975346
4462 4460 0.226725
4462 4461 -3.238849
4462 4462 6.98747
4463 4 -1.202201
4463 4411 -1.216214
4463 4463 4.914728
4463 4464 -2.290767
4463 4465 0.794454
4464 4 -0.384745
4464 4410 -0.045872
4464 4463 -1.50481
4464 4464 6.493276
4464 4465 -3.55785
4465 4 -2.91156
4465 4463 -0.069574
4465 4464 -2.907092
4465 4465 6.888225
4466 4 -1.543061
4466 4410 -1.216214
4466 4466 6.193707
4466 4467 -3.193615
4466 4468 0.759183
4467 4 -0.213057
4467 4411 -0.045872
4467 4466 -2.615043
4467 4467 7.526984
4467 4468 -3.653013
4468 4 -2.975346
4468 4466 0.226725
4468 4467 -3.238849
4468 4468 6.98747
4469 4 -1.202201
4469 4411 -1.216214
4469 4469 4.914728
4469 4470 -2.290767
4469 4471 0.794454
4470 4 -0.384745
4470 4410 -0.045872
4470 4469 -1.50481
4470 4470 6.493276
4470 4471 -3.55785
4471 4 -2.91156
4471 4469 -0.069574
4471 4470 -2.907092
4471 4471 6.888225
4472 4 -1.543061
4472 4410 -1.216214
4472 4472 6.193707
4472 4473 -3.193615
4472 4474 0.759183
4473 4 -0.213057
4473 4411 -0.045872
4473 4472 -2.615043
4473 4473 7.526984
4473 4474 -3.653013
4474 4 -2.975346
4474 4472 0.226725
4474 4473 -3.238849
4474 4474 6.98747
4475 4 -1.202201
4475 4411 -1.216214
4475 4475 4.914728
4475 4476 -2.290767
4475 4477 0.794454
4476 4 -0.384745
4476 4410 -0.045872
4476 4475 -1.50481
4476 4476 6.493276
4476 4477 -3.55785
4477 4 -2.91156
4477 4475 -0.069574
4477 4476 -2.907092
4477 4477 6.888225
4478 4 -1.543061
4478 4410 -1.216214
4478 4478 6.193707
4478 4479 -3.193615
4478 4480 0.759183
4479 4 -0.213057
4479 4411 -0.045872
4479 4478 -2.615043
4479 4479 7.526984
4479 4480 -3.653013
4480 4 -2.975346
4480 4478 0.226725
4480 4479 -3.238849
4480 4480 6.98747
4481 4 -1.202201
4481 4411 -1.216214
4481 4481 4.914728
4481 4482 -2.290767
4481 4483 0.794454
4482 4 -0.384745
4482 4410 -0.045872
4482 4481 -1.50481
4482 4482 6.493276
4482 4483 -3.55785
4483 4 -2.91156
4483 4481 -0.069574
4483 4482 -2.907092
4483 4483 6.888225
4484 4 -1.543061
4484 4410 -1.216214
4484 4484 6.193707
4484 4485 -3.193615
4484 4486 0.759183
4485 4 -0.213057
4485 4411 -0.045872
4485 4484 -2.615043
4485 4485 7.526984
4485 4486 -3.653013
4486 4 -2.975346
4486 4484 0.226725
4486 4485 -3.238849
4486 4486 6.98747
4487 4 -1.202201
4487 4411 -1.216214
4487 4487 4.914728
4487 4488 -2.290767
4487 4489 0.794454
4488 4 -0.384745
4488 4410 -0.045872
4488 4487 -1.50481
4488 4488 6.493276
4488 4489 -3.55785
4489 4 -2.91156
4489 4487 -0.069574
4489 4488 -2.907092
4489 4489 6.888225
4490 4 -1.543061
4490 4410 -1.216214
4490 4490 6.193707
4490 4491 -3.193615
4490 4492 0.759183
4491 4 -0.213057
4491 4411 -0.045872
4491 4490 -2.615043
4491 4491 7.526984
4491 4492 -3.653013
4492 4 -2.975346
4492 4490 0.226725
4492 4491 -3.238849
4492 4492 6.98747
4493 4 -1.202201
4493 4411 -1.216214
4493 4493 4.914728
4493 4494 -2.290767
4493 4495 0.794454
4494 4 -0.384745
4494 4410 -0.045872
4494 4493 -1.50481
4494 4494 6.493276
4494 4495 -3.55785
4495 4 -2.91156
4495 4493 -0.069574
4495 4494 -2.907092
4495 4495 6.888225
4496 4 -1.543061
4496 4410 -1.216214
4496 4496 6.193707
4496 4497 -3.193615
4496 4498 0.759183
4497 4 -0.213057
4497 4411 -0.045872
4497 4496 -2.615043
4497 4497 7.526984
4497 4498 -3.653013
4498 4 -2.975346
4498 4496 0.226725
4498 4497 -3.238849
4498 4498 6.98747
4499 4 -1.202201
4499 4411 -1.216214
4499 4499 4.914728
4499 4500 -2.29077
4499 4501 0.794456
4500 4 -0.384743
4500 4410 -0.045872
4500 4499 -1.50481
4500 4500 6.493281
4500 4501 -3.557856
4501 4 -3.548626
4501 4499 -0.069574
4501 4500 -2.907095
4501 4501 7.525295
4502 4 -1.543063
4502 4410 -1.216214
4502 4502 6.193735
4502 4503 -3.193632
4502 4504 0.759174
4503 4 -0.213049
4503 4411 -0.045872
4503 4502 -2.615082
4503 4503 7.527006
4503 4504 -3.653003
4504 4 -3.612302
4504 4502 0.226742
4504 4503 -3.238859
4504 4504 7.624418
4505 1 -17.2055
4505 2 -19.5265
4505 4 -5.6965
4505 6 -0.0405
4505 12 -2.847
4505 4411 -1.522
4505 4505 68.59008
4505 4506 -2.297298
4505 4513 -2.297298
4505 4519 -2.297298
4505 4525 -2.297298
4505 4917 -2.837837
4505 4923 -2.837837
4505 4929 -2.837837
4505 4935 -2.837837
4505 4942 -0.019231
4505 4948 -0.019231
4505 4954 -0.019231
4505 4960 -0.019231
4505 4966 -0.019231
4505 4972 -0.019231
4505 4978 -0.019231
4505 4984 -0.019231
4505 4990 -0.019231
4505 4996 -0.019231
4505 5002 -0.019231
4506 4 -2.71849
4506 4505 -2.297298
4506 4506 10.909249
4506 4507 -6.500801
4506 4508 1.60734
4507 2 -0.026455
4507 4 -0.477707
4507 4506 -5.344353
4507 4507 14.231309
4507 4508 -7.382794
4508 4 -6.614972
4508 4506 0.584909
4508 4507 -6.597509
4508 4508 13.627572
4509 1 -17.185
4509 2 -19.5575
4509 4 -5.6545
4509 6 -0.0345
4509 11 -2.8445
4509 4410 -1.522
4509 4509 68.55008
4509 4510 -2.297298
4509 4516 -2.297298
4509 4522 -2.297298
4509 4528 -2.297298
4509 4920 -2.837837
4509 4926 -2.837837
4509 4932 -2.837837
4509 4938 -2.837837
4509 4945 -0.019231
4509 4951 -0.019231
4509 4957 -0.019231
4509 4963 -0.019231
4509 4969 -0.019231
4509 4975 -0.019231
4509 4981 -0.019231
4509 4987 -0.019231
4509 4993 -0.019231
4509 4999 -0.019231
4509 5005 -0.019231
4510 4 -2.352866
4510 4509 -2.297298
4510 4510 9.279769
4510 4511 -5.58865
4510 4512 1.959044
4511 2 -0.026455
4511 4 -0.596903
4511 4510 -3.783391
4511 4511 13.216168
4511 4512 -7.809419
4512 4 -6.552259
4512 4510 -0.011399
4512 4511 -6.221291
4512 4512 13.784948
4513 4 -2.718484
4513 4505 -2.297298
4513 4513 10.909174
4513 4514 -6.500756
4513 4515 1.607363
4514 2 -0.026455
4514 4 -0.477725
4514 4513 -5.34425
4514 4514 14.231255
4514 4515 -7.382825
4515 4 -5.507916
4515 4513 0.584864
4515 4514 -6.597483
4515 4515 12.520536
4516 4 -2.352871
4516 4509 -2.297298
4516 4516 9.27974
4516 4517 -5.58862
4516 4518 1.959049
4517 2 -0.026455
4517 4 -0.596907
4517 4516 -3.783362
4517 4517 13.216146
4517 4518 -7.809422
4518 4 -5.445327
4518 4516 -0.011406
4518 4517 -6.221281
4518 4518 12.678013
4519 4 -2.718484
4519 4505 -2.297298
4519 4519 10.909174
4519 4520 -6.500756
4519 4521 1.607363
4520 2 -0.026455
4520 4 -0.477725
4520 4519 -5.34425
4520 4520 14.231255
4520 4521 -7.382825
4521 4 -5.507916
4521 4519 0.584864
4521 4520 -6.597483
4521 4521 12.520536
4522 4 -2.352871
4522 4509 -2.297298
4522 4522 9.27974
4522 4523 -5.58862
4522 4524 1.959049
4523 2 -0.026455
4523 4 -0.596907
4523 4522 -3.783362
4523 4523 13.216146
4523 4524 -7.809422
4524 4 -5.445327
4524 4522 -0.011406
4524 4523 -6.221281
4524 4524 12.678013
4525 4 -2.71849
4525 4505 -2.297298
4525 4525 10.909249
4525 4526 -6.500801
4525 4527 1.60734
4526 2 -0.026455
4526 4 -0.477707
4526 4525 -5.344353
4526 4526 14.231309
4526 4527 -7.382794
4527 4 -6.614972
4527 4525 0.584909
4527 4526 -6.597509
4527 4527 13.627572
4528 4 -2.352866
4528 4509 -2.297298
4528 4528 9.279769
4528 4529 -5.58865
4528 4530 1.959044
4529 2 -0.026455
4529 4 -0.596903
4529 4528 -3.783391
4529 4529 13.216168
4529 4530 -7.809419
4530 4 -6.552259
4530 4528 -0.011399
4530 4529 -6.221291
4530 4530 13.784948
4531 4 -5.13343
4531 12 -1.754386
4531 4531 13.783334
4531 4532 -7.723007
4531 4533 1.827489
4532 2 -0.022523
4532 4 -0.546276
4532 4531 -6.482848
4532 4532 16.649637
4532 4533 -8.59799
4533 4 -6.455659
4533 4531 0.779732
4533 4532 -7.803647
4533 4533 14.479573
4534 4 -4.377343
4534 11 -1.754386
4534 4534 11.324879
4534 4535 -6.508129
4534 4536 2.314978
4535 2 -0.022523
4535 4 -0.709829
4535 4534 -4.363182
4535 4535 15.293918
4535 4536 -9.198384
4536 4 -6.367836
4536 4534 -0.040587
4536 4535 -7.2981
4536 4536 14.706523
4537 4 -3.231445
4537 12 -2.702703
4537 4537 12.829481
4537 4538 -7.722912
4537 4539 1.827579
4538 2 -0.022523
4538 4 -0.546296
4538 4537 -6.482584
4538 4538 16.64952
4538 4539 -8.598118
4539 4 -6.455644
4539 4537 0.779605
4539 4538 -7.803592
4539 4539 14.479631
4540 4 -2.717306
4540 11 -2.702703
4540 4540 10.612961
4540 4541 -6.507953
4540 4542 2.315001
4541 2 -0.022523
4541 4 -0.709852
4541 4540 -4.362955
4541 4541 15.293734
4541 4542 -9.198405
4542 4 -6.367826
4542 4540 -0.040655
4542 4541 -7.298046
4542 4542 14.706527
4543 4 -3.231445
4543 12 -2.702703
4543 4543 12.829481
4543 4544 -7.722912
4543 4545 1.827579
4544 2 -0.022523
4544 4 -0.546296
4544 4543 -6.482584
4544 4544 16.64952
4544 4545 -8.598118
4545 4 -6.455644
4545 4543 0.779605
4545 4544 -7.803592
4545 4545 14.479631
4546 4 -2.717306
4546 11 -2.702703
4546 4546 10.612961
4546 4547 -6.507953
4546 4548 2.315001
4547 2 -0.022523
4547 4 -0.709852
4547 4546 -4.362955
4547 4547 15.293734
4547 4548 -9.198405
4548 4 -6.367826
4548 4546 -0.040655
4548 4547 -7.298046
4548 4548 14.706527
4549 4 -3.231445
4549 12 -2.702703
4549 4549 12.829481
4549 4550 -7.722912
4549 4551 1.827579
4550 2 -0.022523
4550 4 -0.546296
4550 4549 -6.482584
4550 4550 16.64952
4550 4551 -8.598118
4551 4 -6.455644
4551 4549 0.779605
4551 4550 -7.803592
4551 4551 14.479631
4552 4 -2.717306
4552 11 -2.702703
4552 4552 10.612961
4552 4553 -6.507953
4552 4554 2.315001
4553 2 -0.022523
4553 4 -0.709852
4553 4552 -4.362955
4553 4553 15.293734
4553 4554 -9.198405
4554 4 -6.367826
4554 4552 -0.040655
4554 4553 -7.298046
4554 4554 14.706527
4555 4 -3.231445
4555 12 -2.702703
4555 4555 12.829481
4555 4556 -7.722912
4555 4557 1.827579
4556 2 -0.022523
4556 4 -0.546296
4556 4555 -6.482584
4556 4556 16.64952
4556 4557 -8.598118
4557 4 -6.455644
4557 4555 0.779605
4557 4556 -7.803592
4557 4557 14.479631
4558 4 -2.717306
4558 11 -2.702703
4558 4558 10.612961
4558 4559 -6.507953
4558 4560 2.315001
4559 2 -0.022523
4559 4 -0.709852
4559 4558 -4.362955
4559 4559 15.293734
4559 4560 -9.198405
4560 4 -6.367826
4560 4558 -0.040655
4560 4559 -7.298046
4560 4560 14.706527
4561 4 -3.231445
4561 12 -2.702703
4561 4561 12.829481
4561 4562 -7.722912
4561 4563 1.827579
4562 2 -0.022523
4562 4 -0.546296
4562 4561 -6.482584
4562 4562 16.64952
4562 4563 -8.598118
4563 4 -6.455644
4563 4561 0.779605
4563 4562 -7.803592
4563 4563 14.479631
4564 4 -2.717306
4564 11 -2.702703
4564 4564 10.612961
4564 4565 -6.507953
4564 4566 2.315001
4565 2 -0.022523
4565 4 -0.709852
4565 4564 -4.362955
4565 4565 15.293734
4565 4566 -9.198405
4566 4 -6.367826
4566 4564 -0.040655
4566 4565 -7.298046
4566 4566 14.706527
4567 4 -3.231445
4567 12 -2.702703
4567 4567 12.829481
4567 4568 -7.722912
4567 4569 1.827579
4568 2 -0.022523
4568 4 -0.546296
4568 4567 -6.482584
4568 4568 16.64952
4568 4569 -8.598118
4569 4 -6.455644
4569 4567 0.779605
4569 4568 -7.803592
4569 4569 14.479631
4570 4 -2.717306
4570 11 -2.702703
4570 4570 10.612961
4570 4571 -6.507953
4570 4572 2.315001
4571 2 -0.022523
4571 4 -0.709852
4571 4570 -4.362955
4571 4571 15.293734
4571 4572 -9.198405
4572 4 -6.367826
4572 4570 -0.040655
4572 4571 -7.298046
4572 4572 14.706527
4573 4 -3.231445
4573 12 -2.702703
4573 4573 12.829481
4573 4574 -7.722912
4573 4575 1.827579
4574 2 -0.022523
4574 4 -0.546296
4574 4573 -6.482584
4574 4574 16.64952
4574 4575 -8.598118
4575 4 -6.455644
4575 4573 0.779605
4575 4574 -7.803592
4575 4575 14.479631
4576 4 -2.717306
4576 11 -2.702703
4576 4576 10.612961
4576 4577 -6.507953
4576 4578 2.315001
4577 2 -0.022523
4577 4 -0.709852
4577 4576 -4.362955
4577 4577 15.293734
4577 4578 -9.198405
4578 4 -6.367826
4578 4576 -0.040655
4578 4577 -7.298046
4578 4578 14.706527
4579 4 -3.231445
4579 12 -2.702703
4579 4579 12.829481
4579 4580 -7.722912
4579 4581 1.827579
4580 2 -0.022523
4580 4 -0.546296
4580 4579 -6.482584
4580 4580 16.64952
4580 4581 -8.598118
4581 4 -6.455644
4581 4579 0.779605
4581 4580 -7.803592
4581 4581 14.479631
4582 4 -2.717306
4582 11 -2.702703
4582 4582 10.612961
4582 4583 -6.507953
4582 4584 2.315001
4583 2 -0.022523
4583 4 -0.709852
4583 4582 -4.362955
4583 4583 15.293734
4583 4584 -9.198405
4584 4 -6.367826
4584 4582 -0.040655
4584 4583 -7.298046
4584 4584 14.706527
4585 4 -3.231445
4585 12 -2.702703
4585 4585 12.829481
4585 4586 -7.722912
4585 4587 1.827579
4586 2 -0.022523
4586 4 -0.546296
4586 4585 -6.482584
4586 4586 16.64952
4586 4587 -8.598118
4587 4 -6.455644
4587 4585 0.779605
4587 4586 -7.803592
4587 4587 14.479631
4588 4 -2.717306
4588 11 -2.702703
4588 4588 10.612961
4588 4589 -6.507953
4588 4590 2.315001
4589 2 -0.022523
4589 4 -0.709852
4589 4588 -4.362955
4589 4589 15.293734
4589 4590 -9.198405
4590 4 -6.367826
4590 4588 -0.040655
4590 4589 -7.298046
4590 4590 14.706527
4591 4 -3.231452
4591 12 -2.702703
4591 4591 12.82956
4591 4592 -7.722956
4591 4593 1.82755
4592 2 -0.022523
4592 4 -0.546275
4592 4591 -6.482696
4592 4592 16.649573
4592 4593 -8.598079
4593 4 -7.739035
4593 4591 0.779656
4593 4592 -7.803618
4593 4593 15.762997
4594 4 -2.717298
4594 11 -2.702703
4594 4594 10.612985
4594 4595 -6.50798
4594 4596 2.314996
4595 2 -0.022523
4595 4 -0.709849
4595 4594 -4.362977
4595 4595 15.29375
4595 4596 -9.198401
4596 4 -7.651036
4596 4594 -0.040651
4596 4595 -7.298055
4596 4596 15.989742
4597 1 -15.837
4597 2 -74.9745
4597 4 -1.555
4597 6 -11.935
4597 4410 -0.4245
4597 4411 -2.832
4597 4597 296.098563
4597 4598 -4.054065
4597 4601 -0.03
4597 4605 -4.054065
4597 4611 -4.054065
4597 4617 -4.054065
4597 4623 -4.054065
4597 4629 -4.054065
4597 4635 -4.054065
4597 4641 -4.054065
4597 4647 -4.054065
4597 4653 -4.054065
4597 4659 -4.054065
4597 4665 -4.054065
4597 4671 -4.054065
4597 4677 -4.054065
4597 4683 -4.054065
4597 4689 -4.054065
4597 4695 -4.054065
4597 4701 -4.054065
4597 4707 -4.054065
4597 4713 -4.054065
4597 4719 -4.054065
4597 4725 -4.054065
4597 4731 -4.054065
4597 4737 -4.054065
4597 4743 -4.054065
4597 4749 -4.054065
4597 4755 -4.054065
4597 4761 -4.054065
4597 4767 -4.054065
4597 4773 -4.054065
4597 4779 -4.054065
4597 4785 -4.054065
4597 4791 -4.054065
4597 4797 -4.054065
4597 4803 -4.054065
4597 4809 -4.054065
4597 4815 -4.054065
4597 4821 -4.054065
4597 4827 -4.054065
4597 4833 -4.054065
4597 4839 -4.054065
4597 4845 -4.054065
4597 4851 -4.054065
4597 4857 -4.054065
4597 4863 -2.674898
4597 4871 -0.802472
4597 4877 -1.216214
4597 4883 -1.216214
4597 4889 -1.216214
4597 4895 -1.216214
4597 4901 -0.789478
4598 2 -4.543277
4598 4597 -4.054065
4598 4598 18.63226
4598 4599 -11.20656
4598 4600 2.171642
4599 2 -0.551678
4599 6 -0.013755
4599 4598 -10.290386
4599 4599 23.504669
4599 4600 -11.648849
4600 2 -10.147588
4600 4598 1.338999
4600 4599 -11.212102
4600 4600 21.020691
4601 1 -15.7255
4601 2 -75.113
4601 4 -1.5575
4601 6 -11.9355
4601 4410 -2.8285
4601 4411 -0.4245
4601 4597 -0.03
4601 4601 296.125063
4601 4602 -4.054065
4601 4608 -4.054065
4601 4614 -4.054065
4601 4620 -4.054065
4601 4626 -4.054065
4601 4632 -4.054065
4601 4638 -4.054065
4601 4644 -4.054065
4601 4650 -4.054065
4601 4656 -4.054065
4601 4662 -4.054065
4601 4668 -4.054065
4601 4674 -4.054065
4601 4680 -4.054065
4601 4686 -4.054065
4601 4692 -4.054065
4601 4698 -4.054065
4601 4704 -4.054065
4601 4710 -4.054065
4601 4716 -4.054065
4601 4722 -4.054065
4601 4728 -4.054065
4601 4734 -4.054065
4601 4740 -4.054065
4601 4746 -4.054065
4601 4752 -4.054065
4601 4758 -4.054065
4601 4764 -4.054065
4601 4770 -4.054065
4601 4776 -4.054065
4601 4782 -4.054065
4601 4788 -4.054065
4601 4794 -4.054065
4601 4800 -4.054065
4601 4806 -4.054065
4601 4812 -4.054065
4601 4818 -4.054065
4601 4824 -4.054065
4601 4830 -4.054065
4601 4836 -4.054065
4601 4842 -4.054065
4601 4848 -4.054065
4601 4854 -4.054065
4601 4860 -4.054065
4601 4866 -2.674898
4601 4874 -0.802472
4601 4880 -1.216214
4601 4886 -1.216214
4601 4892 -1.216214
4601 4898 -1.216214
4601 4904 -0.789478
4602 2 -4.570276
4602 4601 -4.054065
4602 4602 19.46119
4602 4603 -11.217659
4602 4604 1.380809
4603 2 -0.549739
4603 6 -0.013755
4603 4602 -11.57839
4603 4603 23.520272
4603 4604 -10.378389
4604 2 -10.148622
4604 4602 2.131907
4604 4603 -11.217652
4604 4604 20.234367
4605 2 -4.543277
4605 4597 -4.054065
4605 4605 18.632247
4605 4606 -11.206557
4605 4607 2.171652
4606 2 -0.551679
4606 6 -0.013755
4606 4605 -10.290363
4606 4606 23.504664
4606 4607 -11.648866
4607 2 -8.6233
4607 4605 1.338988
4607 4606 -11.2121
4607 4607 19.496413
4608 2 -4.570276
4608 4601 -4.054065
4608 4608 19.46119
4608 4609 -11.217659
4608 4610 1.380809
4609 2 -0.549739
4609 6 -0.013755
4609 4608 -11.57839
4609 4609 23.520272
4609 4610 -10.378389
4610 2 -8.624308
4610 4608 2.131907
4610 4609 -11.217652
4610 4610 18.710053
4611 2 -4.543277
4611 4597 -4.054065
4611 4611 18.632247
4611 4612 -11.206557
4611 4613 2.171652
4612 2 -0.551679
4612 6 -0.013755
4612 4611 -10.290363
4612 4612 23.504664
4612 4613 -11.648866
4613 2 -8.6233
4613 4611 1.338988
4613 4612 -11.2121
4613 4613 19.496413
4614 2 -4.570276
4614 4601 -4.054065
4614 4614 19.46119
4614 4615 -11.217659
4614 4616 1.380809
4615 2 -0.549739
4615 6 -0.013755
4615 4614 -11.57839
4615 4615 23.520272
4615 4616 -10.378389
4616 2 -8.624308
4616 4614 2.131907
4616 4615 -11.217652
4616 4616 18.710053
4617 2 -4.543277
4617 4597 -4.054065
4617 4617 18.632247
4617 4618 -11.206557
4617 4619 2.171652
4618 2 -0.551679
4618 6 -0.013755
4618 4617 -10.290363
4618 4618 23.504664
4618 4619 -11.648866
4619 2 -8.6233
4619 4617 1.338988
4619 4618 -11.2121
4619 4619 19.496413
4620 2 -4.570276
4620 4601 -4.054065
4620 4620 19.46119
4620 4621 -11.217659
4620 4622 1.380809
4621 2 -0.549739
4621 6 -0.013755
4621 4620 -11.57839
4621 4621 23.520272
4621 4622 -10.378389
4622 2 -8.624308
4622 4620 2.131907
4622 4621 -11.217652
4622 4622 18.710053
4623 2 -4.543277
4623 4597 -4.054065
4623 4623 18.632247
4623 4624 -11.206557
4623 4625 2.171652
4624 2 -0.551679
4624 6 -0.013755
4624 4623 -10.290363
4624 4624 23.504664
4624 4625 -11.648866
4625 2 -8.6233
4625 4623 1.338988
4625 4624 -11.2121
4625 4625 19.496413
4626 2 -4.570276
4626 4601 -4.054065
4626 4626 19.46119
4626 4627 -11.217659
4626 4628 1.380809
4627 2 -0.549739
4627 6 -0.013755
4627 4626 -11.57839
4627 4627 23.520272
4627 4628 -10.378389
4628 2 -8.624308
4628 4626 2.131907
4628 4627 -11.217652
4628 4628 18.710053
4629 2 -4.543277
4629 4597 -4.054065
4629 4629 18.632247
4629 4630 -11.206557
4629 4631 2.171652
4630 2 -0.551679
4630 6 -0.013755
4630 4629 -10.290363
4630 4630 23.504664
4630 4631 -11.648866
4631 2 -8.6233
4631 4629 1.338988
4631 4630 -11.2121
4631 4631 19.496413
4632 2 -4.570276
4632 4601 -4.054065
4632 4632 19.46119
4632 4633 -11.217659
4632 4634 1.380809
4633 2 -0.549739
4633 6 -0.013755
4633 4632 -11.57839
4633 4633 23.520272
4633 4634 -10.378389
4634 2 -8.624308
4634 4632 2.131907
4634 4633 -11.217652
4634 4634 18.710053
4635 2 -4.543277
4635 4597 -4.054065
4635 4635 18.632247
4635 4636 -11.206557
4635 4637 2.171652
4636 2 -0.551679
4636 6 -0.013755
4636 4635 -10.290363
4636 4636 23.504664
4636 4637 -11.648866
4637 2 -8.6233
4637 4635 1.338988
4637 4636 -11.2121
4637 4637 19.496413
4638 2 -4.570276
4638 4601 -4.054065
4638 4638 19.46119
4638 4639 -11.217659
4638 4640 1.380809
4639 2 -0.549739
4639 6 -0.013755
4639 4638 -11.57839
4639 4639 23.520272
4639 4640 -10.378389
4640 2 -8.624308
4640 4638 2.131907
4640 4639 -11.217652
4640 4640 18.710053
4641 2 -4.543277
4641 4597 -4.054065
4641 4641 18.632247
4641 4642 -11.206557
4641 4643 2.171652
4642 2 -0.551679
4642 6 -0.013755
4642 4641 -10.290363
4642 4642 23.504664
4642 4643 -11.648866
4643 2 -8.6233
4643 4641 1.338988
4643 4642 -11.2121
4643 4643 19.496413
4644 2 -4.570276
4644 4601 -4.054065
4644 4644 19.46119
4644 4645 -11.217659
4644 4646 1.380809
4645 2 -0.549739
4645 6 -0.013755
4645 4644 -11.57839
4645 4645 23.520272
4645 4646 -10.378389
4646 2 -8.624308
4646 4644 2.131907
4646 4645 -11.217652
4646 4646 18.710053
4647 2 -4.543277
4647 4597 -4.054065
4647 4647 18.632247
4647 4648 -11.206557
4647 4649 2.171652
4648 2 -0.551679
4648 6 -0.013755
4648 4647 -10.290363
4648 4648 23.504664
4648 4649 -11.648866
4649 2 -8.6233
4649 4647 1.338988
4649 4648 -11.2121
4649 4649 19.496413
4650 2 -4.570276
4650 4601 -4.054065
4650 4650 19.46119
4650 4651 -11.217659
4650 4652 1.380809
4651 2 -0.549739
4651 6 -0.013755
4651 4650 -11.57839
4651 4651 23.520272
4651 4652 -10.378389
4652 2 -8.624308
4652 4650 2.131907
4652 4651 -11.217652
4652 4652 18.710053
4653 2 -4.543277
4653 4597 -4.054065
4653 4653 18.632247
4653 4654 -11.206557
4653 4655 2.171652
4654 2 -0.551679
4654 6 -0.013755
4654 4653 -10.290363
4654 4654 23.504664
4654 4655 -11.648866
4655 2 -8.6233
4655 4653 1.338988
4655 4654 -11.2121
4655 4655 19.496413
4656 2 -4.570276
4656 4601 -4.054065
4656 4656 19.46119
4656 4657 -11.217659
4656 4658 1.380809
4657 2 -0.549739
4657 6 -0.013755
4657 4656 -11.57839
4657 4657 23.520272
4657 4658 -10.378389
4658 2 -8.624308
4658 4656 2.131907
4658 4657 -11.217652
4658 4658 18.710053
4659 2 -4.543277
4659 4597 -4.054065
4659 4659 18.632247
4659 4660 -11.206557
4659 4661 2.171652
4660 2 -0.551679
4660 6 -0.013755
4660 4659 -10.290363
4660 4660 23.504664
4660 4661 -11.648866
4661 2 -8.6233
4661 4659 1.338988
4661 4660 -11.2121
4661 4661 19.496413
4662 2 -4.570276
4662 4601 -4.054065
4662 4662 19.46119
4662 4663 -11.217659
4662 4664 1.380809
4663 2 -0.549739
4663 6 -0.013755
4663 4662 -11.57839
4663 4663 23.520272
4663 4664 -10.378389
4664 2 -8.624308
4664 4662 2.131907
4664 4663 -11.217652
4664 4664 18.710053
4665 2 -4.543277
4665 4597 -4.054065
4665 4665 18.632247
4665 4666 -11.206557
4665 4667 2.171652
4666 2 -0.551679
4666 6 -0.013755
4666 4665 -10.290363
4666 4666 23.504664
4666 4667 -11.648866
4667 2 -8.6233
4667 4665 1.338988
4667 4666 -11.2121
4667 4667 19.496413
4668 2 -4.570276
4668 4601 -4.054065
4668 4668 19.46119
4668 4669 -11.217659
4668 4670 1.380809
4669 2 -0.549739
4669 6 -0.013755
4669 4668 -11.57839
4669 4669 23.520272
4669 4670 -10.378389
4670 2 -8.624308
4670 4668 2.131907
4670 4669 -11.217652
4670 4670 18.710053
4671 2 -4.543277
4671 4597 -4.054065
4671 4671 18.632247
4671 4672 -11.206557
4671 4673 2.171652
4672 2 -0.551679
4672 6 -0.013755
4672 4671 -10.290363
4672 4672 23.504664
4672 4673 -11.648866
4673 2 -8.6233
4673 4671 1.338988
4673 4672 -11.2121
4673 4673 19.496413
4674 2 -4.570276
4674 4601 -4.054065
4674 4674 19.46119
4674 4675 -11.217659
4674 4676 1.380809
4675 2 -0.549739
4675 6 -0.013755
4675 4674 -11.57839
4675 4675 23.520272
4675 4676 -10.378389
4676 2 -8.624308
4676 4674 2.131907
4676 4675 -11.217652
4676 4676 18.710053
4677 2 -4.543277
4677 4597 -4.054065
4677 4677 18.632247
4677 4678 -11.206557
4677 4679 2.171652
4678 2 -0.551679
4678 6 -0.013755
4678 4677 -10.290363
4678 4678 23.504664
4678 4679 -11.648866
4679 2 -8.6233
4679 4677 1.338988
4679 4678 -11.2121
4679 4679 19.496413
4680 2 -4.570276
4680 4601 -4.054065
4680 4680 19.46119
4680 4681 -11.217659
4680 4682 1.380809
4681 2 -0.549739
4681 6 -0.013755
4681 4680 -11.57839
4681 4681 23.520272
4681 4682 -10.378389
4682 2 -8.624308
4682 4680 2.131907
4682 4681 -11.217652
4682 4682 18.710053
4683 2 -4.543277
4683 4597 -4.054065
4683 4683 18.632247
4683 4684 -11.206557
4683 4685 2.171652
4684 2 -0.551679
4684 6 -0.013755
4684 4683 -10.290363
4684 4684 23.504664
4684 4685 -11.648866
4685 2 -8.6233
4685 4683 1.338988
4685 4684 -11.2121
4685 4685 19.496413
4686 2 -4.570276
4686 4601 -4.054065
4686 4686 19.46119
4686 4687 -11.217659
4686 4688 1.380809
4687 2 -0.549739
4687 6 -0.013755
4687 4686 -11.57839
4687 4687 23.520272
4687 4688 -10.378389
4688 2 -8.624308
4688 4686 2.131907
4688 4687 -11.217652
4688 4688 18.710053
4689 2 -4.543277
4689 4597 -4.054065
4689 4689 18.632247
4689 4690 -11.206557
4689 4691 2.171652
4690 2 -0.551679
4690 6 -0.013755
4690 4689 -10.290363
4690 4690 23.504664
4690 4691 -11.648866
4691 2 -8.6233
4691 4689 1.338988
4691 4690 -11.2121
4691 4691 19.496413
4692 2 -4.570276
4692 4601 -4.054065
4692 4692 19.46119
4692 4693 -11.217659
4692 4694 1.380809
4693 2 -0.549739
4693 6 -0.013755
4693 4692 -11.57839
4693 4693 23.520272
4693 4694 -10.378389
4694 2 -8.624308
4694 4692 2.131907
4694 4693 -11.217652
4694 4694 18.710053
4695 2 -4.543277
4695 4597 -4.054065
4695 4695 18.632247
4695 4696 -11.206557
4695 4697 2.171652
4696 2 -0.551679
4696 6 -0.013755
4696 4695 -10.290363
4696 4696 23.504664
4696 4697 -11.648866
4697 2 -8.6233
4697 4695 1.338988
4697 4696 -11.2121
4697 4697 19.496413
4698 2 -4.570276
4698 4601 -4.054065
4698 4698 19.46119
4698 4699 -11.217659
4698 4700 1.380809
4699 2 -0.549739
4699 6 -0.013755
4699 4698 -11.57839
4699 4699 23.520272
4699 4700 -10.378389
4700 2 -8.624308
4700 4698 2.131907
4700 4699 -11.217652
4700 4700 18.710053
4701 2 -4.543277
4701 4597 -4.054065
4701 4701 18.632247
4701 4702 -11.206557
4701 4703 2.171652
4702 2 -0.551679
4702 6 -0.013755
4702 4701 -10.290363
4702 4702 23.504664
4702 4703 -11.648866
4703 2 -8.6233
4703 4701 1.338988
4703 4702 -11.2121
4703 4703 19.496413
4704 2 -4.570276
4704 4601 -4.054065
4704 4704 19.46119
4704 4705 -11.217659
4704 4706 1.380809
4705 2 -0.549739
4705 6 -0.013755
4705 4704 -11.57839
4705 4705 23.520272
4705 4706 -10.378389
4706 2 -8.624308
4706 4704 2.131907
4706 4705 -11.217652
4706 4706 18.710053
4707 2 -4.543277
4707 4597 -4.054065
4707 4707 18.632247
4707 4708 -11.206557
4707 4709 2.171652
4708 2 -0.551679
4708 6 -0.013755
4708 4707 -10.290363
4708 4708 23.504664
4708 4709 -11.648866
4709 2 -8.6233
4709 4707 1.338988
4709 4708 -11.2121
4709 4709 19.496413
4710 2 -4.570276
4710 4601 -4.054065
4710 4710 19.46119
4710 4711 -11.217659
4710 4712 1.380809
4711 2 -0.549739
4711 6 -0.013755
4711 4710 -11.57839
4711 4711 23.520272
4711 4712 -10.378389
4712 2 -8.624308
4712 4710 2.131907
4712 4711 -11.217652
4712 4712 18.710053
4713 2 -4.543277
4713 4597 -4.054065
4713 4713 18.632247
4713 4714 -11.206557
4713 4715 2.171652
4714 2 -0.551679
4714 6 -0.013755
4714 4713 -10.290363
4714 4714 23.504664
4714 4715 -11.648866
4715 2 -8.6233
4715 4713 1.338988
4715 4714 -11.2121
4715 4715 19.496413
4716 2 -4.570276
4716 4601 -4.054065
4716 4716 19.46119
4716 4717 -11.217659
4716 4718 1.380809
4717 2 -0.549739
4717 6 -0.013755
4717 4716 -11.57839
4717 4717 23.520272
4717 4718 -10.378389
4718 2 -8.624308
4718 4716 2.131907
4718 4717 -11.217652
4718 4718 18.710053
4719 2 -4.543277
4719 4597 -4.054065
4719 4719 18.632247
4719 4720 -11.206557
4719 4721 2.171652
4720 2 -0.551679
4720 6 -0.013755
4720 4719 -10.290363
4720 4720 23.504664
4720 4721 -11.648866
4721 2 -8.6233
4721 4719 1.338988
4721 4720 -11.2121
4721 4721 19.496413
4722 2 -4.570276
4722 4601 -4.054065
4722 4722 19.46119
4722 4723 -11.217659
4722 4724 1.380809
4723 2 -0.549739
4723 6 -0.013755
4723 4722 -11.57839
4723 4723 23.520272
4723 4724 -10.378389
4724 2 -8.624308
4724 4722 2.131907
4724 4723 -11.217652
4724 4724 18.710053
4725 2 -4.543277
4725 4597 -4.054065
4725 4725 18.632247
4725 4726 -11.206557
4725 4727 2.171652
4726 2 -0.551679
4726 6 -0.013755
4726 4725 -10.290363
4726 4726 23.504664
4726 4727 -11.648866
4727 2 -8.6233
4727 4725 1.338988
4727 4726 -11.2121
4727 4727 19.496413
4728 2 -4.570276
4728 4601 -4.054065
4728 4728 19.46119
4728 4729 -11.217659
4728 4730 1.380809
4729 2 -0.549739
4729 6 -0.013755
4729 4728 -11.57839
4729 4729 23.520272
4729 4730 -10.378389
4730 2 -8.624308
4730 4728 2.131907
4730 4729 -11.217652
4730 4730 18.710053
4731 2 -4.543277
4731 4597 -4.054065
4731 4731 18.632247
4731 4732 -11.206557
4731 4733 2.171652
4732 2 -0.551679
4732 6 -0.013755
4732 4731 -10.290363
4732 4732 23.504664
4732 4733 -11.648866
4733 2 -8.6233
4733 4731 1.338988
4733 4732 -11.2121
4733 4733 19.496413
4734 2 -4.570276
4734 4601 -4.054065
4734 4734 19.46119
4734 4735 -11.217659
4734 4736 1.380809
4735 2 -0.549739
4735 6 -0.013755
4735 4734 -11.57839
4735 4735 23.520272
4735 4736 -10.378389
4736 2 -8.624308
4736 4734 2.131907
4736 4735 -11.217652
4736 4736 18.710053
4737 2 -4.543277
4737 4597 -4.054065
4737 4737 18.632247
4737 4738 -11.206557
4737 4739 2.171652
4738 2 -0.551679
4738 6 -0.013755
4738 4737 -10.290363
4738 4738 23.504664
4738 4739 -11.648866
4739 2 -8.6233
4739 4737 1.338988
4739 4738 -11.2121
4739 4739 19.496413
4740 2 -4.570276
4740 4601 -4.054065
4740 4740 19.46119
4740 4741 -11.217659
4740 4742 1.380809
4741 2 -0.549739
4741 6 -0.013755
4741 4740 -11.57839
4741 4741 23.520272
4741 4742 -10.378389
4742 2 -8.624308
4742 4740 2.131907
4742 4741 -11.217652
4742 4742 18.710053
4743 2 -4.543277
4743 4597 -4.054065
4743 4743 18.632247
4743 4744 -11.206557
4743 4745 2.171652
4744 2 -0.551679
4744 6 -0.013755
4744 4743 -10.290363
4744 4744 23.504664
4744 4745 -11.648866
4745 2 -8.6233
4745 4743 1.338988
4745 4744 -11.2121
4745 4745 19.496413
4746 2 -4.570276
4746 4601 -4.054065
4746 4746 19.46119
4746 4747 -11.217659
4746 4748 1.380809
4747 2 -0.549739
4747 6 -0.013755
4747 4746 -11.57839
4747 4747 23.520272
4747 4748 -10.378389
4748 2 -8.624308
4748 4746 2.131907
4748 4747 -11.217652
4748 4748 18.710053
4749 2 -4.543277
4749 4597 -4.054065
4749 4749 18.632247
4749 4750 -11.206557
4749 4751 2.171652
4750 2 -0.551679
4750 6 -0.013755
4750 4749 -10.290363
4750 4750 23.504664
4750 4751 -11.648866
4751 2 -8.6233
4751 4749 1.338988
4751 4750 -11.2121
4751 4751 19.496413
4752 2 -4.570276
4752 4601 -4.054065
4752 4752 19.46119
4752 4753 -11.217659
4752 4754 1.380809
4753 2 -0.549739
4753 6 -0.013755
4753 4752 -11.57839
4753 4753 23.520272
4753 4754 -10.378389
4754 2 -8.624308
4754 4752 2.131907
4754 4753 -11.217652
4754 4754 18.710053
4755 2 -4.543277
4755 4597 -4.054065
4755 4755 18.632247
4755 4756 -11.206557
4755 4757 2.171652
4756 2 -0.551679
4756 6 -0.013755
4756 4755 -10.290363
4756 4756 23.504664
4756 4757 -11.648866
4757 2 -8.6233
4757 4755 1.338988
4757 4756 -11.2121
4757 4757 19.496413
4758 2 -4.570276
4758 4601 -4.054065
4758 4758 19.46119
4758 4759 -11.217659
4758 4760 1.380809
4759 2 -0.549739
4759 6 -0.013755
4759 4758 -11.57839
4759 4759 23.520272
4759 4760 -10.378389
4760 2 -8.624308
4760 4758 2.131907
4760 4759 -11.217652
4760 4760 18.710053
4761 2 -4.543277
4761 4597 -4.054065
4761 4761 18.632247
4761 4762 -11.206557
4761 4763 2.171652
4762 2 -0.551679
4762 6 -0.013755
4762 4761 -10.290363
4762 4762 23.504664
4762 4763 -11.648866
4763 2 -8.6233
4763 4761 1.338988
4763 4762 -11.2121
4763 4763 19.496413
4764 2 -4.570276
4764 4601 -4.054065
4764 4764 19.46119
4764 4765 -11.217659
4764 4766 1.380809
4765 2 -0.549739
4765 6 -0.013755
4765 4764 -11.57839
4765 4765 23.520272
4765 4766 -10.378389
4766 2 -8.624308
4766 4764 2.131907
4766 4765 -11.217652
4766 4766 18.710053
4767 2 -4.543277
4767 4597 -4.054065
4767 4767 18.632247
4767 4768 -11.206557
4767 4769 2.171652
4768 2 -0.551679
4768 6 -0.013755
4768 4767 -10.290363
4768 4768 23.504664
4768 4769 -11.648866
4769 2 -8.6233
4769 4767 1.338988
4769 4768 -11.2121
4769 4769 19.496413
4770 2 -4.570276
4770 4601 -4.054065
4770 4770 19.46119
4770 4771 -11.217659
4770 4772 1.380809
4771 2 -0.549739
4771 6 -0.013755
4771 4770 -11.57839
4771 4771 23.520272
4771 4772 -10.378389
4772 2 -8.624308
4772 4770 2.131907
4772 4771 -11.217652
4772 4772 18.710053
4773 2 -4.543277
4773 4597 -4.054065
4773 4773 18.632247
4773 4774 -11.206557
4773 4775 2.171652
4774 2 -0.551679
4774 6 -0.013755
4774 4773 -10.290363
4774 4774 23.504664
4774 4775 -11.648866
4775 2 -8.6233
4775 4773 1.338988
4775 4774 -11.2121
4775 4775 19.496413
4776 2 -4.570276
4776 4601 -4.054065
4776 4776 19.46119
4776 4777 -11.217659
4776 4778 1.380809
4777 2 -0.549739
4777 6 -0.013755
4777 4776 -11.57839
4777 4777 23.520272
4777 4778 -10.378389
4778 2 -8.624308
4778 4776 2.131907
4778 4777 -11.217652
4778 4778 18.710053
4779 2 -4.543277
4779 4597 -4.054065
4779 4779 18.632247
4779 4780 -11.206557
4779 4781 2.171652
4780 2 -0.551679
4780 6 -0.013755
4780 4779 -10.290363
4780 4780 23.504664
4780 4781 -11.648866
4781 2 -8.6233
4781 4779 1.338988
4781 4780 -11.2121
4781 4781 19.496413
4782 2 -4.570276
4782 4601 -4.054065
4782 4782 19.46119
4782 4783 -11.217659
4782 4784 1.380809
4783 2 -0.549739
4783 6 -0.013755
4783 4782 -11.57839
4783 4783 23.520272
4783 4784 -10.378389
4784 2 -8.624308
4784 4782 2.131907
4784 4783 -11.217652
4784 4784 18.710053
4785 2 -4.543277
4785 4597 -4.054065
4785 4785 18.632247
4785 4786 -11.206557
4785 4787 2.171652
4786 2 -0.551679
4786 6 -0.013755
4786 4785 -10.290363
4786 4786 23.504664
4786 4787 -11.648866
4787 2 -8.6233
4787 4785 1.338988
4787 4786 -11.2121
4787 4787 19.496413
4788 2 -4.570276
4788 4601 -4.054065
4788 4788 19.46119
4788 4789 -11.217659
4788 4790 1.380809
4789 2 -0.549739
4789 6 -0.013755
4789 4788 -11.57839
4789 4789 23.520272
4789 4790 -10.378389
4790 2 -8.624308
4790 4788 2.131907
4790 4789 -11.217652
4790 4790 18.710053
4791 2 -4.543277
4791 4597 -4.054065
4791 4791 18.632247
4791 4792 -11.206557
4791 4793 2.171652
4792 2 -0.551679
4792 6 -0.013755
4792 4791 -10.290363
4792 4792 23.504664
4792 4793 -11.648866
4793 2 -8.6233
4793 4791 1.338988
4793 4792 -11.2121
4793 4793 19.496413
4794 2 -4.570276
4794 4601 -4.054065
4794 4794 19.46119
4794 4795 -11.217659
4794 4796 1.380809
4795 2 -0.549739
4795 6 -0.013755
4795 4794 -11.57839
4795 4795 23.520272
4795 4796 -10.378389
4796 2 -8.624308
4796 4794 2.131907
4796 4795 -11.217652
4796 4796 18.710053
4797 2 -4.543277
4797 4597 -4.054065
4797 4797 18.632247
4797 4798 -11.206557
4797 4799 2.171652
4798 2 -0.551679
4798 6 -0.013755
4798 4797 -10.290363
4798 4798 23.504664
4798 4799 -11.648866
4799 2 -8.6233
4799 4797 1.338988
4799 4798 -11.2121
4799 4799 19.496413
4800 2 -4.570276
4800 4601 -4.054065
4800 4800 19.46119
4800 4801 -11.217659
4800 4802 1.380809
4801 2 -0.549739
4801 6 -0.013755
4801 4800 -11.57839
4801 4801 23.520272
4801 4802 -10.378389
4802 2 -8.624308
4802 4800 2.131907
4802 4801 -11.217652
4802 4802 18.710053
4803 2 -4.543277
4803 4597 -4.054065
4803 4803 18.632247
4803 4804 -11.206557
4803 4805 2.171652
4804 2 -0.551679
4804 6 -0.013755
4804 4803 -10.290363
4804 4804 23.504664
4804 4805 -11.648866
4805 2 -8.6233
4805 4803 1.338988
4805 4804 -11.2121
4805 4805 19.496413
4806 2 -4.570276
4806 4601 -4.054065
4806 4806 19.46119
4806 4807 -11.217659
4806 4808 1.380809
4807 2 -0.549739
4807 6 -0.013755
4807 4806 -11.57839
4807 4807 23.520272
4807 4808 -10.378389
4808 2 -8.624308
4808 4806 2.131907
4808 4807 -11.217652
4808 4808 18.710053
4809 2 -4.543277
4809 4597 -4.054065
4809 4809 18.632247
4809 4810 -11.206557
4809 4811 2.171652
4810 2 -0.551679
4810 6 -0.013755
4810 4809 -10.290363
4810 4810 23.504664
4810 4811 -11.648866
4811 2 -8.6233
4811 4809 1.338988
4811 4810 -11.2121
4811 4811 19.496413
4812 2 -4.570276
4812 4601 -4.054065
4812 4812 19.46119
4812 4813 -11.217659
4812 4814 1.380809
4813 2 -0.549739
4813 6 -0.013755
4813 4812 -11.57839
4813 4813 23.520272
4813 4814 -10.378389
4814 2 -8.624308
4814 4812 2.131907
4814 4813 -11.217652
4814 4814 18.710053
4815 2 -4.543277
4815 4597 -4.054065
4815 4815 18.632247
4815 4816 -11.206557
4815 4817 2.171652
4816 2 -0.551679
4816 6 -0.013755
4816 4815 -10.290363
4816 4816 23.504664
4816 4817 -11.648866
4817 2 -8.6233
4817 4815 1.338988
4817 4816 -11.2121
4817 4817 19.496413
4818 2 -4.570276
4818 4601 -4.054065
4818 4818 19.46119
4818 4819 -11.217659
4818 4820 1.380809
4819 2 -0.549739
4819 6 -0.013755
4819 4818 -11.57839
4819 4819 23.520272
4819 4820 -10.378389
4820 2 -8.624308
4820 4818 2.131907
4820 4819 -11.217652
4820 4820 18.710053
4821 2 -4.543277
4821 4597 -4.054065
4821 4821 18.632247
4821 4822 -11.206557
4821 4823 2.171652
4822 2 -0.551679
4822 6 -0.013755
4822 4821 -10.290363
4822 4822 23.504664
4822 4823 -11.648866
4823 2 -8.6233
4823 4821 1.338988
4823 4822 -11.2121
4823 4823 19.496413
4824 2 -4.570276
4824 4601 -4.054065
4824 4824 19.46119
4824 4825 -11.217659
4824 4826 1.380809
4825 2 -0.549739
4825 6 -0.013755
4825 4824 -11.57839
4825 4825 23.520272
4825 4826 -10.378389
4826 2 -8.624308
4826 4824 2.131907
4826 4825 -11.217652
4826 4826 18.710053
4827 2 -4.543277
4827 4597 -4.054065
4827 4827 18.632247
4827 4828 -11.206557
4827 4829 2.171652
4828 2 -0.551679
4828 6 -0.013755
4828 4827 -10.290363
4828 4828 23.504664
4828 4829 -11.648866
4829 2 -8.6233
4829 4827 1.338988
4829 4828 -11.2121
4829 4829 19.496413
4830 2 -4.570276
4830 4601 -4.054065
4830 4830 19.46119
4830 4831 -11.217659
4830 4832 1.380809
4831 2 -0.549739
4831 6 -0.013755
4831 4830 -11.57839
4831 4831 23.520272
4831 4832 -10.378389
4832 2 -8.624308
4832 4830 2.131907
4832 4831 -11.217652
4832 4832 18.710053
4833 2 -4.543277
4833 4597 -4.054065
4833 4833 18.632247
4833 4834 -11.206557
4833 4835 2.171652
4834 2 -0.551679
4834 6 -0.013755
4834 4833 -10.290363
4834 4834 23.504664
4834 4835 -11.648866
4835 2 -8.6233
4835 4833 1.338988
4835 4834 -11.2121
4835 4835 19.496413
4836 2 -4.570276
4836 4601 -4.054065
4836 4836 19.46119
4836 4837 -11.217659
4836 4838 1.380809
4837 2 -0.549739
4837 6 -0.013755
4837 4836 -11.57839
4837 4837 23.520272
4837 4838 -10.378389
4838 2 -8.624308
4838 4836 2.131907
4838 4837 -11.217652
4838 4838 18.710053
4839 2 -4.543277
4839 4597 -4.054065
4839 4839 18.632247
4839 4840 -11.206557
4839 4841 2.171652
4840 2 -0.551679
4840 6 -0.013755
4840 4839 -10.290363
4840 4840 23.504664
4840 4841 -11.648866
4841 2 -8.6233
4841 4839 1.338988
4841 4840 -11.2121
4841 4841 19.496413
4842 2 -4.570276
4842 4601 -4.054065
4842 4842 19.46119
4842 4843 -11.217659
4842 4844 1.380809
4843 2 -0.549739
4843 6 -0.013755
4843 4842 -11.57839
4843 4843 23.520272
4843 4844 -10.378389
4844 2 -8.624308
4844 4842 2.131907
4844 4843 -11.217652
4844 4844 18.710053
4845 2 -4.543277
4845 4597 -4.054065
4845 4845 18.632247
4845 4846 -11.206557
4845 4847 2.171652
4846 2 -0.551679
4846 6 -0.013755
4846 4845 -10.290363
4846 4846 23.504664
4846 4847 -11.648866
4847 2 -8.6233
4847 4845 1.338988
4847 4846 -11.2121
4847 4847 19.496413
4848 2 -4.570276
4848 4601 -4.054065
4848 4848 19.46119
4848 4849 -11.217659
4848 4850 1.380809
4849 2 -0.549739
4849 6 -0.013755
4849 4848 -11.57839
4849 4849 23.520272
4849 4850 -10.378389
4850 2 -8.624308
4850 4848 2.131907
4850 4849 -11.217652
4850 4850 18.710053
4851 2 -4.543277
4851 4597 -4.054065
4851 4851 18.632247
4851 4852 -11.206557
4851 4853 2.171652
4852 2 -0.551679
4852 6 -0.013755
4852 4851 -10.290363
4852 4852 23.504664
4852 4853 -11.648866
4853 2 -8.6233
4853 4851 1.338988
4853 4852 -11.2121
4853 4853 19.496413
4854 2 -4.570276
4854 4601 -4.054065
4854 4854 19.46119
4854 4855 -11.217659
4854 4856 1.380809
4855 2 -0.549739
4855 6 -0.013755
4855 4854 -11.57839
4855 4855 23.520272
4855 4856 -10.378389
4856 2 -8.624308
4856 4854 2.131907
4856 4855 -11.217652
4856 4856 18.710053
4857 2 -4.543277
4857 4597 -4.054065
4857 4857 18.632247
4857 4858 -11.206557
4857 4859 2.171652
4858 2 -0.551679
4858 6 -0.013755
4858 4857 -10.290363
4858 4858 23.504664
4858 4859 -11.648866
4859 2 -8.6233
4859 4857 1.338988
4859 4858 -11.2121
4859 4859 19.496413
4860 2 -4.570276
4860 4601 -4.054065
4860 4860 19.46119
4860 4861 -11.217659
4860 4862 1.380809
4861 2 -0.549739
4861 6 -0.013755
4861 4860 -11.57839
4861 4861 23.520272
4861 4862 -10.378389
4862 2 -8.624308
4862 4860 2.131907
4862 4861 -11.217652
4862 4862 18.710053
4863 2 -6.925005
4863 4597 -2.674898
4863 4863 19.634824
4863 4864 -11.206561
4863 4865 2.17164
4864 2 -0.551679
4864 6 -0.013755
4864 4863 -10.290391
4864 4864 23.504669
4864 4865 -11.648844
4865 2 -8.6233
4865 4863 1.339001
4865 4864 -11.212102
4865 4865 19.496402
4866 2 -6.966517
4866 4601 -2.674898
4866 4866 20.478265
4866 4867 -11.217659
4866 4868 1.380809
4867 2 -0.549739
4867 6 -0.013755
4867 4866 -11.57839
4867 4867 23.520272
4867 4868 -10.378389
4868 2 -8.624308
4868 4866 2.131907
4868 4867 -11.217652
4868 4868 18.710053
4869 2 -1.33338
4869 4411 -1.216214
4869 4869 6.13627
4869 4870 -3.313998
4869 4871 0.727321
4870 2 -0.164992
4870 4410 -0.045872
4870 4869 -2.881943
4870 4870 7.712438
4870 4871 -3.619632
4871 2 -2.073635
4871 4597 -0.802472
4871 4869 0.296529
4871 4870 -3.333864
4871 4871 6.913443
4872 2 -1.007931
4872 4410 -1.216214
4872 4872 4.90905
4872 4873 -1.764287
4872 4874 0.079381
4873 2 -0.313849
4873 4411 -0.045872
4873 4872 -1.670771
4873 4873 5.084107
4873 4874 -2.053615
4874 2 -2.027821
4874 4601 -0.802472
4874 4872 -0.005378
4874 4873 -1.989029
4874 4874 5.8247
4875 2 -1.333381
4875 4411 -1.216214
4875 4875 6.13622
4875 4876 -3.313973
4875 4877 0.727348
4876 2 -0.165002
4876 4410 -0.045872
4876 4875 -2.881862
4876 4876 7.7124
4876 4877 -3.619664
4877 2 -1.470079
4877 4597 -1.216214
4877 4875 0.296494
4877 4876 -3.333849
4877 4877 6.723648
4878 2 -1.007931
4878 4410 -1.216214
4878 4878 4.90905
4878 4879 -1.764285
4878 4880 0.079379
4879 2 -0.31385
4879 4411 -0.045872
4879 4878 -1.670771
4879 4879 5.084103
4879 4880 -2.053611
4880 2 -1.420709
4880 4601 -1.216214
4880 4878 -0.005378
4880 4879 -1.989027
4880 4880 5.631327
4881 2 -1.333381
4881 4411 -1.216214
4881 4881 6.13622
4881 4882 -3.313973
4881 4883 0.727348
4882 2 -0.165002
4882 4410 -0.045872
4882 4881 -2.881862
4882 4882 7.7124
4882 4883 -3.619664
4883 2 -1.470079
4883 4597 -1.216214
4883 4881 0.296494
4883 4882 -3.333849
4883 4883 6.723648
4884 2 -1.007931
4884 4410 -1.216214
4884 4884 4.90905
4884 4885 -1.764285
4884 4886 0.079379
4885 2 -0.31385
4885 4411 -0.045872
4885 4884 -1.670771
4885 4885 5.084103
4885 4886 -2.053611
4886 2 -1.420709
4886 4601 -1.216214
4886 4884 -0.005378
4886 4885 -1.989027
4886 4886 5.631327
4887 2 -1.333381
4887 4411 -1.216214
4887 4887 6.13622
4887 4888 -3.313973
4887 4889 0.727348
4888 2 -0.165002
4888 4410 -0.045872
4888 4887 -2.881862
4888 4888 7.7124
4888 4889 -3.619664
4889 2 -1.470079
4889 4597 -1.216214
4889 4887 0.296494
4889 4888 -3.333849
4889 4889 6.723648
4890 2 -1.007931
4890 4410 -1.216214
4890 4890 4.90905
4890 4891 -1.764285
4890 4892 0.079379
4891 2 -0.31385
4891 4411 -0.045872
4891 4890 -1.670771
4891 4891 5.084103
4891 4892 -2.053611
4892 2 -1.420709
4892 4601 -1.216214
4892 4890 -0.005378
4892 4891 -1.989027
4892 4892 5.631327
4893 2 -1.333381
4893 4411 -1.216214
4893 4893 6.13622
4893 4894 -3.313973
4893 4895 0.727348
4894 2 -0.165002
4894 4410 -0.045872
4894 4893 -2.881862
4894 4894 7.7124
4894 4895 -3.619664
4895 2 -1.470079
4895 4597 -1.216214
4895 4893 0.296494
4895 4894 -3.333849
4895 4895 6.723648
4896 2 -1.007931
4896 4410 -1.216214
4896 4896 4.90905
4896 4897 -1.764285
4896 4898 0.079379
4897 2 -0.31385
4897 4411 -0.045872
4897 4896 -1.670771
4897 4897 5.084103
4897 4898 -2.053611
4898 2 -1.420709
4898 4601 -1.216214
4898 4896 -0.005378
4898 4897 -1.989027
4898 4898 5.631327
4899 2 -1.33338
4899 4411 -1.216214
4899 4899 6.136272
4899 4900 -3.313999
4899 4901 0.72732
4900 2 -0.164992
4900 4410 -0.045872
4900 4899 -2.881947
4900 4900 7.71244
4900 4901 -3.61963
4901 2 -2.408133
4901 4597 -0.789478
4901 4899 0.29653
4901 4900 -3.333865
4901 4901 7.234945
4902 2 -1.007931
4902 4410 -1.216214
4902 4902 4.90905
4902 4903 -1.764287
4902 4904 0.079381
4903 2 -0.313849
4903 4411 -0.045872
4903 4902 -1.670771
4903 4903 5.084107
4903 4904 -2.053615
4904 2 -2.365169
4904 4601 -0.789478
4904 4902 -0.005378
4904 4903 -1.989029
4904 4904 6.149054
4905 2 -0.705274
4905 4411 -0.608106
4905 4905 3.231535
4905 4906 -0.926144
4905 4907 0.007989
4906 2 -0.163365
4906 4406 -0.091743
4906 4905 -0.91193
4906 4906 3.122966
4906 4907 -0.955929
4907 2 -1.699143
4907 4905 -0.000517
4907 4906 -0.949202
4907 4907 3.648862
4908 2 -0.705274
4908 4411 -0.608106
4908 4908 3.231535
4908 4909 -0.926144
4908 4910 0.007989
4909 2 -0.163365
4909 4406 -0.091743
4909 4908 -0.91193
4909 4909 3.122966
4909 4910 -0.955929
4910 2 -1.699143
4910 4908 -0.000517
4910 4909 -0.949202
4910 4910 3.648862
4911 2 -0.566634
4911 4410 -0.608106
4911 4911 3.075153
4911 4912 -1.330242
4911 4913 0.429829
4912 2 -0.111103
4912 4408 -0.091743
4912 4911 -0.887723
4912 4912 3.984302
4912 4913 -1.893733
4913 2 -1.719742
4913 4911 -0.02669
4913 4912 -1.538849
4913 4913 4.28528
4914 2 -0.566634
4914 4410 -0.608106
4914 4914 3.075153
4914 4915 -1.330242
4914 4916 0.429829
4915 2 -0.111103
4915 4408 -0.091743
4915 4914 -0.887723
4915 4915 3.984302
4915 4916 -1.893733
4916 2 -1.719742
4916 4914 -0.02669
4916 4915 -1.538849
4916 4916 4.28528
4917 2 -2.287038
4917 4505 -2.837837
4917 4917 10.08494
4917 4918 -4.178651
4917 4919 0.218586
4918 2 -0.867793
4918 4411 -0.021413
4918 4917 -3.923764
4918 4918 10.679487
4918 4919 -4.866516
4919 2 -7.033614
4919 4917 -0.013773
4919 4918 -4.689197
4919 4919 12.736585
4920 2 -2.701544
4920 4509 -2.837837
4920 4920 11.989914
4920 4921 -7.757132
4920 4922 2.3066
4921 2 -0.504613
4921 4410 -0.021413
4921 4920 -5.800664
4921 4921 16.991364
4921 4922 -9.664674
4922 2 -7.175099
4922 4920 0.32407
4922 4921 -8.105172
4922 4922 15.9562
4923 2 -2.287038
4923 4505 -2.837837
4923 4923 10.084941
4923 4924 -4.178646
4923 4925 0.218581
4924 2 -0.867795
4924 4411 -0.021413
4924 4923 -3.923765
4924 4924 10.679476
4924 4925 -4.866503
4925 2 -5.940692
4925 4923 -0.013773
4925 4924 -4.68919
4925 4925 11.643654
4926 2 -2.701551
4926 4509 -2.837837
4926 4926 11.989768
4926 4927 -7.757008
4926 4928 2.306629
4927 2 -0.504647
4927 4410 -0.021413
4927 4926 -5.800461
4927 4927 16.991194
4927 4928 -9.664673
4928 2 -6.082858
4928 4926 0.324001
4928 4927 -8.105114
4928 4928 14.863971
4929 2 -2.287038
4929 4505 -2.837837
4929 4929 10.084941
4929 4930 -4.178646
4929 4931 0.218581
4930 2 -0.867795
4930 4411 -0.021413
4930 4929 -3.923765
4930 4930 10.679476
4930 4931 -4.866503
4931 2 -5.940692
4931 4929 -0.013773
4931 4930 -4.68919
4931 4931 11.643654
4932 2 -2.701551
4932 4509 -2.837837
4932 4932 11.989768
4932 4933 -7.757008
4932 4934 2.306629
4933 2 -0.504647
4933 4410 -0.021413
4933 4932 -5.800461
4933 4933 16.991194
4933 4934 -9.664673
4934 2 -6.082858
4934 4932 0.324001
4934 4933 -8.105114
4934 4934 14.863971
4935 2 -2.287038
4935 4505 -2.837837
4935 4935 10.08494
4935 4936 -4.178651
4935 4937 0.218586
4936 2 -0.867793
4936 4411 -0.021413
4936 4935 -3.923764
4936 4936 10.679487
4936 4937 -4.866516
4937 2 -7.033614
4937 4935 -0.013773
4937 4936 -4.689197
4937 4937 12.736585
4938 2 -2.701544
4938 4509 -2.837837
4938 4938 11.989914
4938 4939 -7.757132
4938 4940 2.3066
4939 2 -0.504613
4939 4410 -0.021413
4939 4938 -5.800664
4939 4939 16.991364
4939 4940 -9.664674
4940 2 -7.175099
4940 4938 0.32407
4940 4939 -8.105172
4940 4940 15.9562
4941 2 -2.588216
4941 12 -3.162165
4941 4941 11.332246
4941 4942 -7.223387
4941 4943 2.641523
4942 2 -0.660113
4942 4505 -0.019231
4942 4941 -4.506031
4942 4942 17.047175
4942 4943 -10.8618
4943 2 -7.932354
4943 4941 -0.158779
4943 4942 -8.572619
4943 4943 17.663752
4944 2 -2.973781
4944 11 -3.162165
4944 4944 11.759656
4944 4945 -7.208307
4944 4946 2.584597
4945 2 -0.681057
4945 4509 -0.019231
4945 4944 -4.558462
4945 4945 16.971836
4945 4946 -10.713086
4946 2 -7.945966
4946 4944 -0.156758
4946 4945 -8.4575
4946 4946 17.560224
4947 2 -2.588226
4947 12 -3.162165
4947 4947 11.332254
4947 4948 -7.223391
4947 4949 2.641528
4948 2 -0.660145
4948 4505 -0.019231
4948 4947 -4.506044
4948 4948 17.047183
4948 4949 -10.861763
4949 2 -6.725092
4949 4947 -0.158772
4949 4948 -8.572621
4949 4949 16.456485
4950 2 -2.973783
4950 11 -3.162165
4950 4950 11.759657
4950 4951 -7.20833
4950 4952 2.584621
4951 2 -0.681057
4951 4509 -0.019231
4951 4950 -4.558462
4951 4951 16.971887
4951 4952 -10.713137
4952 2 -6.738064
4952 4950 -0.156759
4952 4951 -8.457533
4952 4952 16.352356
4953 2 -2.588226
4953 12 -3.162165
4953 4953 11.332254
4953 4954 -7.223391
4953 4955 2.641528
4954 2 -0.660145
4954 4505 -0.019231
4954 4953 -4.506044
4954 4954 17.047183
4954 4955 -10.861763
4955 2 -6.725092
4955 4953 -0.158772
4955 4954 -8.572621
4955 4955 16.456485
4956 2 -2.973783
4956 11 -3.162165
4956 4956 11.759657
4956 4957 -7.20833
4956 4958 2.584621
4957 2 -0.681057
4957 4509 -0.019231
4957 4956 -4.558462
4957 4957 16.971887
4957 4958 -10.713137
4958 2 -6.738064
4958 4956 -0.156759
4958 4957 -8.457533
4958 4958 16.352356
4959 2 -2.588226
4959 12 -3.162165
4959 4959 11.332254
4959 4960 -7.223391
4959 4961 2.641528
4960 2 -0.660145
4960 4505 -0.019231
4960 4959 -4.506044
4960 4960 17.047183
4960 4961 -10.861763
4961 2 -6.725092
4961 4959 -0.158772
4961 4960 -8.572621
4961 4961 16.456485
4962 2 -2.973783
4962 11 -3.162165
4962 4962 11.759657
4962 4963 -7.20833
4962 4964 2.584621
4963 2 -0.681057
4963 4509 -0.019231
4963 4962 -4.558462
4963 4963 16.971887
4963 4964 -10.713137
4964 2 -6.738064
4964 4962 -0.156759
4964 4963 -8.457533
4964 4964 16.352356
4965 2 -2.588226
4965 12 -3.162165
4965 4965 11.332254
4965 4966 -7.223391
4965 4967 2.641528
4966 2 -0.660145
4966 4505 -0.019231
4966 4965 -4.506044
4966 4966 17.047183
4966 4967 -10.861763
4967 2 -6.725092
4967 4965 -0.158772
4967 4966 -8.572621
4967 4967 16.456485
4968 2 -2.973783
4968 11 -3.162165
4968 4968 11.759657
4968 4969 -7.20833
4968 4970 2.584621
4969 2 -0.681057
4969 4509 -0.019231
4969 4968 -4.558462
4969 4969 16.971887
4969 4970 -10.713137
4970 2 -6.738064
4970 4968 -0.156759
4970 4969 -8.457533
4970 4970 16.352356
4971 2 -2.588226
4971 12 -3.162165
4971 4971 11.332254
4971 4972 -7.223391
4971 4973 2.641528
4972 2 -0.660145
4972 4505 -0.019231
4972 4971 -4.506044
4972 4972 17.047183
4972 4973 -10.861763
4973 2 -6.725092
4973 4971 -0.158772
4973 4972 -8.572621
4973 4973 16.456485
4974 2 -2.973783
4974 11 -3.162165
4974 4974 11.759657
4974 4975 -7.20833
4974 4976 2.584621
4975 2 -0.681057
4975 4509 -0.019231
4975 4974 -4.558462
4975 4975 16.971887
4975 4976 -10.713137
4976 2 -6.738064
4976 4974 -0.156759
4976 4975 -8.457533
4976 4976 16.352356
4977 2 -2.588226
4977 12 -3.162165
4977 4977 11.332254
4977 4978 -7.223391
4977 4979 2.641528
4978 2 -0.660145
4978 4505 -0.019231
4978 4977 -4.506044
4978 4978 17.047183
4978 4979 -10.861763
4979 2 -6.725092
4979 4977 -0.158772
4979 4978 -8.572621
4979 4979 16.456485
4980 2 -2.973783
4980 11 -3.162165
4980 4980 11.759657
4980 4981 -7.20833
4980 4982 2.584621
4981 2 -0.681057
4981 4509 -0.019231
4981 4980 -4.558462
4981 4981 16.971887
4981 4982 -10.713137
4982 2 -6.738064
4982 4980 -0.156759
4982 4981 -8.457533
4982 4982 16.352356
4983 2 -2.588226
4983 12 -3.162165
4983 4983 11.332254
4983 4984 -7.223391
4983 4985 2.641528
4984 2 -0.660145
4984 4505 -0.019231
4984 4983 -4.506044
4984 4984 17.047183
4984 4985 -10.861763
4985 2 -6.725092
4985 4983 -0.158772
4985 4984 -8.572621
4985 4985 16.456485
4986 2 -2.973783
4986 11 -3.162165
4986 4986 11.759657
4986 4987 -7.20833
4986 4988 2.584621
4987 2 -0.681057
4987 4509 -0.019231
4987 4986 -4.558462
4987 4987 16.971887
4987 4988 -10.713137
4988 2 -6.738064
4988 4986 -0.156759
4988 4987 -8.457533
4988 4988 16.352356
4989 2 -2.588226
4989 12 -3.162165
4989 4989 11.332254
4989 4990 -7.223391
4989 4991 2.641528
4990 2 -0.660145
4990 4505 -0.019231
4990 4989 -4.506044
4990 4990 17.047183
4990 4991 -10.861763
4991 2 -6.725092
4991 4989 -0.158772
4991 4990 -8.572621
4991 4991 16.456485
4992 2 -2.973783
4992 11 -3.162165
4992 4992 11.759657
4992 4993 -7.20833
4992 4994 2.584621
4993 2 -0.681057
4993 4509 -0.019231
4993 4992 -4.558462
4993 4993 16.971887
4993 4994 -10.713137
4994 2 -6.738064
4994 4992 -0.156759
4994 4993 -8.457533
4994 4994 16.352356
4995 2 -2.588226
4995 12 -3.162165
4995 4995 11.332254
4995 4996 -7.223391
4995 4997 2.641528
4996 2 -0.660145
4996 4505 -0.019231
4996 4995 -4.506044
4996 4996 17.047183
4996 4997 -10.861763
4997 2 -6.725092
4997 4995 -0.158772
4997 4996 -8.572621
4997 4997 16.456485
4998 2 -2.973783
4998 11 -3.162165
4998 4998 11.759657
4998 4999 -7.20833
4998 5000 2.584621
4999 2 -0.681057
4999 4509 -0.019231
4999 4998 -4.558462
4999 4999 16.971887
4999 5000 -10.713137
5000 2 -6.738064
5000 4998 -0.156759
5000 4999 -8.457533
5000 5000 16.352356
5001 2 -4.230891
5001 12 -2.052634
5001 5001 11.865481
5001 5002 -7.223492
5001 5003 2.641535
5002 2 -0.660137
5002 4505 -0.019231
5002 5001 -4.506144
5002 5002 17.047287
5002 5003 -10.861775
5003 2 -6.725096
5003 5001 -0.158768
5003 5002 -8.572626
5003 5003 16.456491
5004 2 -4.887291
5004 11 -2.052634
5004 5004 12.56365
5004 5005 -7.208347
5004 5006 2.584622
5005 2 -0.681055
5005 4509 -0.019231
5005 5004 -4.55848
5005 5005 16.971902
5005 5006 -10.713137
5006 2 -6.738065
5006 5004 -0.156758
5006 5005 -8.457531
5006 5006 16.352354
5007 1 -1.742862
5007 5 -15.492679
5007 4406 -0.11236
5007 5007 18.347901
5008 1 -1.805877
5008 5 -17.420587
5008 4408 -0.11236
5008 5008 20.338824
5009 1 -1.742862
5009 5 -15.492679
5009 4406 -0.11236
5009 5009 18.347901
5010 1 -1.805877
5010 5 -17.420587
5010 4408 -0.11236
5010 5010 20.338824
5011 1 -1.742862
5011 5 -15.492679
5011 4406 -0.11236
5011 5011 18.347901
5012 1 -1.805877
5012 5 -17.420587
5012 4408 -0.11236
5012 5012 20.338824
5013 1 -1.750601
5013 5 -15.868436
5013 4411 -0.11236
5013 5013 18.731397
5014 1 -1.807633
5014 5 -17.420271
5014 4410 -0.11236
5014 5014 20.340263
5015 1 -1.750601
5015 5 -15.868436
5015 4411 -0.11236
5015 5015 18.731397
5016 1 -1.807633
5016 5 -17.420271
5016 4410 -0.11236
5016 5016 20.340263
5017 1 -1.750601
5017 5 -15.868436
5017 4411 -0.11236
5017 5017 18.731397
5018 1 -1.807633
5018 5 -17.420271
5018 4410 -0.11236
5018 5018 20.340263
5019 4406 -1.020408
5019 5019 2.020408
5019 7538 -1.0
5020 1 -19.606396
5020 4411 -27.7502
5020 5020 48.356596
5021 1 -19.606396
5021 4406 -27.7502
5021 5021 48.356596
5022 4408 -1.020408
5022 5022 2.020408
5022 7537 -1.0
5023 1 -19.606396
5023 4410 -27.7502
5023 5023 48.356596
5024 1 -19.606396
5024 4408 -27.7502
5024 5024 48.356596
5025 4409 -4.385965
5025 5025 5.385965
5025 7535 -1.0
5026 4412 -4.385965
5026 5026 5.385965
5026 7534 -1.0
5027 5027 5.385965
5027 5028 -4.385965
5027 7533 -1.0
5028 1 -16.8765
5028 2 -9.244
5028 4 -1.0705
5028 5 -2.0275
5028 5027 -4.385965
5028 5028 155.606038
5028 5033 -34.3644
5028 5035 -57.346
5028 5528 -0.091743
5028 5531 -0.091743
5028 5629 -0.11236
5028 5631 -0.11236
5028 5633 -0.11236
5028 5641 -1.020408
5028 5643 -27.7502
5029 5029 5.385965
5029 5030 -4.385965
5029 7536 -1.0
5030 1 -16.882
5030 2 -9.139
5030 4 -1.0705
5030 5 -2.094
5030 5029 -4.385965
5030 5030 155.555538
5030 5032 -34.3639
5030 5036 -57.329
5030 5534 -0.091743
5030 5537 -0.091743
5030 5630 -0.11236
5030 5632 -0.11236
5030 5634 -0.11236
5030 5644 -1.020408
5030 5646 -27.7502
5031 5031 5.385965
5031 5647 -4.385965
5031 7536 1.0
5032 1 -41.117
5032 2 -16.5255
5032 4 -25.0715
5032 5 -2.03
5032 6 -0.315
5032 5030 -34.3639
5032 5032 256.827596
5032 5033 -12.9405
5032 5036 -63.223
5032 5038 -0.045872
5032 5040 -0.789478
5032 5044 -0.045872
5032 5046 -1.216214
5032 5050 -0.045872
5032 5052 -1.216214
5032 5056 -0.045872
5032 5058 -1.216214
5032 5062 -0.045872
5032 5064 -1.216214
5032 5068 -0.045872
5032 5070 -1.216214
5032 5074 -0.045872
5032 5076 -1.216214
5032 5080 -0.045872
5032 5082 -1.216214
5032 5086 -0.045872
5032 5088 -1.216214
5032 5092 -0.045872
5032 5094 -1.216214
5032 5098 -0.045872
5032 5100 -1.216214
5032 5104 -0.045872
5032 5106 -1.216214
5032 5110 -0.045872
5032 5112 -1.216214
5032 5116 -0.045872
5032 5118 -1.216214
5032 5122 -0.045872
5032 5124 -1.216214
5032 5131 -1.522
5032 5219 -0.4245
5032 5223 -2.8285
5032 5492 -0.045872
5032 5494 -1.216214
5032 5498 -0.045872
5032 5500 -1.216214
5032 5504 -0.045872
5032 5506 -1.216214
5032 5510 -0.045872
5032 5512 -1.216214
5032 5516 -0.045872
5032 5518 -1.216214
5032 5522 -0.045872
5032 5524 -1.216214
5032 5533 -0.608106
5032 5536 -0.608106
5032 5543 -0.021413
5032 5549 -0.021413
5032 5555 -0.021413
5032 5561 -0.021413
5032 5636 -0.11236
5032 5638 -0.11236
5032 5640 -0.11236
5032 5645 -27.7502
5032 7531 1.0
5032 7535 1.0
5033 1 -41.1965
5033 2 -16.6505
5033 4 -25.0385
5033 5 -1.968
5033 6 -0.31
5033 5028 -34.3644
5033 5032 -12.9405
5033 5033 256.913596
5033 5035 -63.2005
5033 5037 -0.789478
5033 5041 -0.045872
5033 5043 -1.216214
5033 5047 -0.045872
5033 5049 -1.216214
5033 5053 -0.045872
5033 5055 -1.216214
5033 5059 -0.045872
5033 5061 -1.216214
5033 5065 -0.045872
5033 5067 -1.216214
5033 5071 -0.045872
5033 5073 -1.216214
5033 5077 -0.045872
5033 5079 -1.216214
5033 5083 -0.045872
5033 5085 -1.216214
5033 5089 -0.045872
5033 5091 -1.216214
5033 5095 -0.045872
5033 5097 -1.216214
5033 5101 -0.045872
5033 5103 -1.216214
5033 5107 -0.045872
5033 5109 -1.216214
5033 5113 -0.045872
5033 5115 -1.216214
5033 5119 -0.045872
5033 5121 -1.216214
5033 5125 -0.045872
5033 5127 -1.522
5033 5219 -2.832
5033 5223 -0.4245
5033 5491 -1.216214
5033 5495 -0.045872
5033 5497 -1.216214
5033 5501 -0.045872
5033 5503 -1.216214
5033 5507 -0.045872
5033 5509 -1.216214
5033 5513 -0.045872
5033 5515 -1.216214
5033 5519 -0.045872
5033 5521 -1.216214
5033 5525 -0.045872
5033 5527 -0.608106
5033 5530 -0.608106
5033 5540 -0.021413
5033 5546 -0.021413
5033 5552 -0.021413
5033 5558 -0.021413
5033 5635 -0.11236
5033 5637 -0.11236
5033 5639 -0.11236
5033 5642 -27.7502
5033 7532 1.0
5033 7534 1.0
5034 5034 5.385965
5034 5648 -4.385965
5034 7533 1.0
5035 1 -132.8115
5035 2 -194.2496
5035 4 -52.4615
5035 5 -55.2875
5035 9 -0.4625
5035 10 -0.4625
5035 5028 -57.346
5035 5033 -63.2005
5035 5035 557.2816
5036 1 -132.228
5036 2 -197.5526
5036 4 -52.4615
5036 5 -55.5525
5036 9 -0.531
5036 10 -0.531
5036 5030 -57.329
5036 5032 -63.223
5036 5036 560.4086
5037 4 -1.929754
5037 5033 -0.789478
5037 5037 5.226202
5037 5038 -2.176973
5037 5039 0.670002
5038 4 -0.419007
5038 5032 -0.045872
5038 5037 -1.508888
5038 5038 6.26945
5038 5039 -3.295683
5039 4 -2.890188
5039 5037 -0.058644
5039 5038 -2.750383
5039 5039 6.699215
5040 4 -2.513926
5040 5032 -0.789478
5040 5040 6.814413
5040 5041 -3.233627
5040 5042 0.722618
5041 4 -0.204094
5041 5033 -0.045872
5041 5040 -2.721305
5041 5041 7.575779
5041 5042 -3.604507
5042 4 -2.980408
5042 5040 0.276263
5042 5041 -3.260947
5042 5042 6.965092
5043 4 -1.179434
5043 5033 -1.216214
5043 5043 4.902616
5043 5044 -2.176973
5043 5045 0.670004
5044 4 -0.419007
5044 5032 -0.045872
5044 5043 -1.508887
5044 5044 6.269452
5044 5045 -3.295686
5045 4 -2.890188
5045 5043 -0.058644
5045 5044 -2.750385
5045 5045 6.699218
5046 4 -1.572492
5046 5032 -1.216214
5046 5046 6.299673
5046 5047 -3.233607
5046 5048 0.722639
5047 4 -0.2041
5047 5033 -0.045872
5047 5046 -2.721246
5047 5047 7.575753
5047 5048 -3.604536
5048 4 -2.980404
5048 5046 0.276234
5048 5047 -3.260935
5048 5048 6.965106
5049 4 -1.179434
5049 5033 -1.216214
5049 5049 4.902616
5049 5050 -2.176973
5049 5051 0.670004
5050 4 -0.419007
5050 5032 -0.045872
5050 5049 -1.508887
5050 5050 6.269452
5050 5051 -3.295686
5051 4 -2.890188
5051 5049 -0.058644
5051 5050 -2.750385
5051 5051 6.699218
5052 4 -1.572492
5052 5032 -1.216214
5052 5052 6.299673
5052 5053 -3.233607
5052 5054 0.722639
5053 4 -0.2041
5053 5033 -0.045872
5053 5052 -2.721246
5053 5053 7.575753
5053 5054 -3.604536
5054 4 -2.980404
5054 5052 0.276234
5054 5053 -3.260935
5054 5054 6.965106
5055 4 -1.179434
5055 5033 -1.216214
5055 5055 4.902616
5055 5056 -2.176973
5055 5057 0.670004
5056 4 -0.419007
5056 5032 -0.045872
5056 5055 -1.508887
5056 5056 6.269452
5056 5057 -3.295686
5057 4 -2.890188
5057 5055 -0.058644
5057 5056 -2.750385
5057 5057 6.699218
5058 4 -1.572492
5058 5032 -1.216214
5058 5058 6.299673
5058 5059 -3.233607
5058 5060 0.722639
5059 4 -0.2041
5059 5033 -0.045872
5059 5058 -2.721246
5059 5059 7.575753
5059 5060 -3.604536
5060 4 -2.980404
5060 5058 0.276234
5060 5059 -3.260935
5060 5060 6.965106
5061 4 -1.179434
5061 5033 -1.216214
5061 5061 4.902616
5061 5062 -2.176973
5061 5063 0.670004
5062 4 -0.419007
5062 5032 -0.045872
5062 5061 -1.508887
5062 5062 6.269452
5062 5063 -3.295686
5063 4 -2.890188
5063 5061 -0.058644
5063 5062 -2.750385
5063 5063 6.699218
5064 4 -1.572492
5064 5032 -1.216214
5064 5064 6.299673
5064 5065 -3.233607
5064 5066 0.722639
5065 4 -0.2041
5065 5033 -0.045872
5065 5064 -2.721246
5065 5065 7.575753
5065 5066 -3.604536
5066 4 -2.980404
5066 5064 0.276234
5066 5065 -3.260935
5066 5066 6.965106
5067 4 -1.179434
5067 5033 -1.216214
5067 5067 4.902616
5067 5068 -2.176973
5067 5069 0.670004
5068 4 -0.419007
5068 5032 -0.045872
5068 5067 -1.508887
5068 5068 6.269452
5068 5069 -3.295686
5069 4 -2.890188
5069 5067 -0.058644
5069 5068 -2.750385
5069 5069 6.699218
5070 4 -1.572492
5070 5032 -1.216214
5070 5070 6.299673
5070 5071 -3.233607
5070 5072 0.722639
5071 4 -0.2041
5071 5033 -0.045872
5071 5070 -2.721246
5071 5071 7.575753
5071 5072 -3.604536
5072 4 -2.980404
5072 5070 0.276234
5072 5071 -3.260935
5072 5072 6.965106
5073 4 -1.179434
5073 5033 -1.216214
5073 5073 4.902616
5073 5074 -2.176973
5073 5075 0.670004
5074 4 -0.419007
5074 5032 -0.045872
5074 5073 -1.508887
5074 5074 6.269452
5074 5075 -3.295686
5075 4 -2.890188
5075 5073 -0.058644
5075 5074 -2.750385
5075 5075 6.699218
5076 4 -1.572492
5076 5032 -1.216214
5076 5076 6.299673
5076 5077 -3.233607
5076 5078 0.722639
5077 4 -0.2041
5077 5033 -0.045872
5077 5076 -2.721246
5077 5077 7.575753
5077 5078 -3.604536
5078 4 -2.980404
5078 5076 0.276234
5078 5077 -3.260935
5078 5078 6.965106
5079 4 -1.179434
5079 5033 -1.216214
5079 5079 4.902616
5079 5080 -2.176973
5079 5081 0.670004
5080 4 -0.419007
5080 5032 -0.045872
5080 5079 -1.508887
5080 5080 6.269452
5080 5081 -3.295686
5081 4 -2.890188
5081 5079 -0.058644
5081 5080 -2.750385
5081 5081 6.699218
5082 4 -1.572492
5082 5032 -1.216214
5082 5082 6.299673
5082 5083 -3.233607
5082 5084 0.722639
5083 4 -0.2041
5083 5033 -0.045872
5083 5082 -2.721246
5083 5083 7.575753
5083 5084 -3.604536
5084 4 -2.980404
5084 5082 0.276234
5084 5083 -3.260935
5084 5084 6.965106
5085 4 -1.179434
5085 5033 -1.216214
5085 5085 4.902616
5085 5086 -2.176973
5085 5087 0.670004
5086 4 -0.419007
5086 5032 -0.045872
5086 5085 -1.508887
5086 5086 6.269452
5086 5087 -3.295686
5087 4 -2.890188
5087 5085 -0.058644
5087 5086 -2.750385
5087 5087 6.699218
5088 4 -1.572492
5088 5032 -1.216214
5088 5088 6.299673
5088 5089 -3.233607
5088 5090 0.722639
5089 4 -0.2041
5089 5033 -0.045872
5089 5088 -2.721246
5089 5089 7.575753
5089 5090 -3.604536
5090 4 -2.980404
5090 5088 0.276234
5090 5089 -3.260935
5090 5090 6.965106
5091 4 -1.179434
5091 5033 -1.216214
5091 5091 4.902616
5091 5092 -2.176973
5091 5093 0.670004
5092 4 -0.419007
5092 5032 -0.045872
5092 5091 -1.508887
5092 5092 6.269452
5092 5093 -3.295686
5093 4 -2.890188
5093 5091 -0.058644
5093 5092 -2.750385
5093 5093 6.699218
5094 4 -1.572492
5094 5032 -1.216214
5094 5094 6.299673
5094 5095 -3.233607
5094 5096 0.722639
5095 4 -0.2041
5095 5033 -0.045872
5095 5094 -2.721246
5095 5095 7.575753
5095 5096 -3.604536
5096 4 -2.980404
5096 5094 0.276234
5096 5095 -3.260935
5096 5096 6.965106
5097 4 -1.179434
5097 5033 -1.216214
5097 5097 4.902616
5097 5098 -2.176973
5097 5099 0.670004
5098 4 -0.419007
5098 5032 -0.045872
5098 5097 -1.508887
5098 5098 6.269452
5098 5099 -3.295686
5099 4 -2.890188
5099 5097 -0.058644
5099 5098 -2.750385
5099 5099 6.699218
5100 4 -1.572492
5100 5032 -1.216214
5100 5100 6.299673
5100 5101 -3.233607
5100 5102 0.722639
5101 4 -0.2041
5101 5033 -0.045872
5101 5100 -2.721246
5101 5101 7.575753
5101 5102 -3.604536
5102 4 -2.980404
5102 5100 0.276234
5102 5101 -3.260935
5102 5102 6.965106
5103 4 -1.179434
5103 5033 -1.216214
5103 5103 4.902616
5103 5104 -2.176973
5103 5105 0.670004
5104 4 -0.419007
5104 5032 -0.045872
5104 5103 -1.508887
5104 5104 6.269452
5104 5105 -3.295686
5105 4 -2.890188
5105 5103 -0.058644
5105 5104 -2.750385
5105 5105 6.699218
5106 4 -1.572492
5106 5032 -1.216214
5106 5106 6.299673
5106 5107 -3.233607
5106 5108 0.722639
5107 4 -0.2041
5107 5033 -0.045872
5107 5106 -2.721246
5107 5107 7.575753
5107 5108 -3.604536
5108 4 -2.980404
5108 5106 0.276234
5108 5107 -3.260935
5108 5108 6.965106
5109 4 -1.179434
5109 5033 -1.216214
5109 5109 4.902616
5109 5110 -2.176973
5109 5111 0.670004
5110 4 -0.419007
5110 5032 -0.045872
5110 5109 -1.508887
5110 5110 6.269452
5110 5111 -3.295686
5111 4 -2.890188
5111 5109 -0.058644
5111 5110 -2.750385
5111 5111 6.699218
5112 4 -1.572492
5112 5032 -1.216214
5112 5112 6.299673
5112 5113 -3.233607
5112 5114 0.722639
5113 4 -0.2041
5113 5033 -0.045872
5113 5112 -2.721246
5113 5113 7.575753
5113 5114 -3.604536
5114 4 -2.980404
5114 5112 0.276234
5114 5113 -3.260935
5114 5114 6.965106
5115 4 -1.179434
5115 5033 -1.216214
5115 5115 4.902616
5115 5116 -2.176973
5115 5117 0.670004
5116 4 -0.419007
5116 5032 -0.045872
5116 5115 -1.508887
5116 5116 6.269452
5116 5117 -3.295686
5117 4 -2.890188
5117 5115 -0.058644
5117 5116 -2.750385
5117 5117 6.699218
5118 4 -1.572492
5118 5032 -1.216214
5118 5118 6.299673
5118 5119 -3.233607
5118 5120 0.722639
5119 4 -0.2041
5119 5033 -0.045872
5119 5118 -2.721246
5119 5119 7.575753
5119 5120 -3.604536
5120 4 -2.980404
5120 5118 0.276234
5120 5119 -3.260935
5120 5120 6.965106
5121 4 -1.179434
5121 5033 -1.216214
5121 5121 4.902616
5121 5122 -2.176973
5121 5123 0.670004
5122 4 -0.419007
5122 5032 -0.045872
5122 5121 -1.508887
5122 5122 6.269452
5122 5123 -3.295686
5123 4 -3.527253
5123 5121 -0.058644
5123 5122 -2.750385
5123 5123 7.336283
5124 4 -1.572494
5124 5032 -1.216214
5124 5124 6.299699
5124 5125 -3.23362
5124 5126 0.722629
5125 4 -0.204092
5125 5033 -0.045872
5125 5124 -2.721281
5125 5125 7.57577
5125 5126 -3.604525
5126 4 -3.617367
5126 5124 0.276251
5126 5125 -3.260943
5126 5126 7.60206
5127 1 -17.2055
5127 2 -19.5265
5127 4 -5.6965
5127 6 -0.0405
5127 10 -2.847
5127 5033 -1.522
5127 5127 68.59008
5127 5128 -2.297298
5127 5135 -2.297298
5127 5141 -2.297298
5127 5147 -2.297298
5127 5539 -2.837837
5127 5545 -2.837837
5127 5551 -2.837837
5127 5557 -2.837837
5127 5564 -0.019231
5127 5570 -0.019231
5127 5576 -0.019231
5127 5582 -0.019231
5127 5588 -0.019231
5127 5594 -0.019231
5127 5600 -0.019231
5127 5606 -0.019231
5127 5612 -0.019231
5127 5618 -0.019231
5127 5624 -0.019231
5128 4 -2.784683
5128 5127 -2.297298
5128 5128 11.119379
5128 5129 -6.577387
5128 5130 1.539989
5129 2 -0.026455
5129 4 -0.462817
5129 5128 -5.547841
5129 5129 14.325486
5129 5130 -7.288373
5130 4 -6.625846
5130 5128 0.680835
5130 5129 -6.640543
5130 5130 13.585555
5131 1 -17.185
5131 2 -19.5575
5131 4 -5.6545
5131 6 -0.0345
5131 9 -2.8445
5131 5032 -1.522
5131 5131 68.55008
5131 5132 -2.297298
5131 5138 -2.297298
5131 5144 -2.297298
5131 5150 -2.297298
5131 5542 -2.837837
5131 5548 -2.837837
5131 5554 -2.837837
5131 5560 -2.837837
5131 5567 -0.019231
5131 5573 -0.019231
5131 5579 -0.019231
5131 5585 -0.019231
5131 5591 -0.019231
5131 5597 -0.019231
5131 5603 -0.019231
5131 5609 -0.019231
5131 5615 -0.019231
5131 5621 -0.019231
5131 5627 -0.019231
5132 4 -2.30699
5132 5131 -2.297298
5132 5132 9.108426
5132 5133 -5.477266
5132 5134 1.973128
5133 2 -0.026455
5133 4 -0.611078
5133 5132 -3.64061
5133 5133 13.100623
5133 5134 -7.82248
5134 4 -6.545931
5134 5132 -0.054522
5134 5133 -6.18683
5134 5134 13.787283
5135 4 -2.784677
5135 5127 -2.297298
5135 5135 11.119314
5135 5136 -6.577352
5135 5137 1.540013
5136 2 -0.026455
5136 4 -0.462834
5136 5135 -5.547748
5136 5136 14.325443
5136 5137 -7.288406
5137 4 -5.518763
5137 5135 0.680792
5137 5136 -6.640522
5137 5137 12.478492
5138 4 -2.306998
5138 5131 -2.297298
5138 5138 9.108414
5138 5139 -5.47725
5138 5140 1.973132
5139 2 -0.026455
5139 4 -0.611079
5139 5138 -3.6406
5139 5139 13.100617
5139 5140 -7.822484
5140 4 -5.439009
5140 5138 -0.054523
5140 5139 -6.186825
5140 5140 12.680357
5141 4 -2.784677
5141 5127 -2.297298
5141 5141 11.119314
5141 5142 -6.577352
5141 5143 1.540013
5142 2 -0.026455
5142 4 -0.462834
5142 5141 -5.547748
5142 5142 14.325443
5142 5143 -7.288406
5143 4 -5.518763
5143 5141 0.680792
5143 5142 -6.640522
5143 5143 12.478492
5144 4 -2.306998
5144 5131 -2.297298
5144 5144 9.108414
5144 5145 -5.47725
5144 5146 1.973132
5145 2 -0.026455
5145 4 -0.611079
5145 5144 -3.6406
5145 5145 13.100617
5145 5146 -7.822484
5146 4 -5.439009
5146 5144 -0.054523
5146 5145 -6.186825
5146 5146 12.680357
5147 4 -2.784683
5147 5127 -2.297298
5147 5147 11.119379
5147 5148 -6.577387
5147 5149 1.539989
5148 2 -0.026455
5148 4 -0.462817
5148 5147 -5.547841
5148 5148 14.325486
5148 5149 -7.288373
5149 4 -6.625846
5149 5147 0.680835
5149 5148 -6.640543
5149 5149 13.585555
5150 4 -2.30699
5150 5131 -2.297298
5150 5150 9.108426
5150 5151 -5.477266
5150 5152 1.973128
5151 2 -0.026455
5151 4 -0.611078
5151 5150 -3.64061
5151 5151 13.100623
5151 5152 -7.82248
5152 4 -6.545931
5152 5150 -0.054522
5152 5151 -6.18683
5152 5152 13.787283
5153 4 -5.012804
5153 10 -1.754386
5153 5153 13.478963
5153 5154 -7.623001
5153 5155 1.911228
5154 2 -0.022523
5154 4 -0.565169
5154 5153 -6.225425
5154 5154 16.527336
5154 5155 -8.71422
5155 4 -6.44219
5155 5153 0.659724
5155 5154 -7.748314
5155 5155 14.53078
5156 4 -4.470198
5156 9 -1.754386
5156 5156 11.617394
5156 5157 -6.680152
5156 5158 2.287342
5157 2 -0.022523
5157 4 -0.688951
5157 5156 -4.5918
5157 5157 15.473902
5157 5158 -9.170629
5158 4 -6.377044
5158 5156 0.031024
5158 5157 -7.353839
5158 5158 14.699859
5159 4 -3.150896
5159 10 -2.702703
5159 5159 12.565125
5159 5160 -7.62286
5159 5161 1.911334
5160 2 -0.022523
5160 4 -0.565193
5160 5159 -6.225087
5160 5160 16.527166
5160 5161 -8.714363
5161 4 -6.442173
5161 5159 0.659571
5161 5160 -7.748239
5161 5161 14.530842
5162 4 -2.779457
5162 9 -2.702703
5162 5162 10.874684
5162 5163 -6.679913
5162 5164 2.287388
5163 2 -0.022523
5163 4 -0.688979
5163 5162 -4.591471
5163 5163 15.47365
5163 5164 -9.170677
5164 4 -6.377031
5164 5162 0.030917
5164 5163 -7.353758
5164 5164 14.699872
5165 4 -3.150896
5165 10 -2.702703
5165 5165 12.565125
5165 5166 -7.62286
5165 5167 1.911334
5166 2 -0.022523
5166 4 -0.565193
5166 5165 -6.225087
5166 5166 16.527166
5166 5167 -8.714363
5167 4 -6.442173
5167 5165 0.659571
5167 5166 -7.748239
5167 5167 14.530842
5168 4 -2.779457
5168 9 -2.702703
5168 5168 10.874684
5168 5169 -6.679913
5168 5170 2.287388
5169 2 -0.022523
5169 4 -0.688979
5169 5168 -4.591471
5169 5169 15.47365
5169 5170 -9.170677
5170 4 -6.377031
5170 5168 0.030917
5170 5169 -7.353758
5170 5170 14.699872
5171 4 -3.150896
5171 10 -2.702703
5171 5171 12.565125
5171 5172 -7.62286
5171 5173 1.911334
5172 2 -0.022523
5172 4 -0.565193
5172 5171 -6.225087
5172 5172 16.527166
5172 5173 -8.714363
5173 4 -6.442173
5173 5171 0.659571
5173 5172 -7.748239
5173 5173 14.530842
5174 4 -2.779457
5174 9 -2.702703
5174 5174 10.874684
5174 5175 -6.679913
5174 5176 2.287388
5175 2 -0.022523
5175 4 -0.688979
5175 5174 -4.591471
5175 5175 15.47365
5175 5176 -9.170677
5176 4 -6.377031
5176 5174 0.030917
5176 5175 -7.353758
5176 5176 14.699872
5177 4 -3.150896
5177 10 -2.702703
5177 5177 12.565125
5177 5178 -7.62286
5177 5179 1.911334
5178 2 -0.022523
5178 4 -0.565193
5178 5177 -6.225087
5178 5178 16.527166
5178 5179 -8.714363
5179 4 -6.442173
5179 5177 0.659571
5179 5178 -7.748239
5179 5179 14.530842
5180 4 -2.779457
5180 9 -2.702703
5180 5180 10.874684
5180 5181 -6.679913
5180 5182 2.287388
5181 2 -0.022523
5181 4 -0.688979
5181 5180 -4.591471
5181 5181 15.47365
5181 5182 -9.170677
5182 4 -6.377031
5182 5180 0.030917
5182 5181 -7.353758
5182 5182 14.699872
5183 4 -3.150896
5183 10 -2.702703
5183 5183 12.565125
5183 5184 -7.62286
5183 5185 1.911334
5184 2 -0.022523
5184 4 -0.565193
5184 5183 -6.225087
5184 5184 16.527166
5184 5185 -8.714363
5185 4 -6.442173
5185 5183 0.659571
5185 5184 -7.748239
5185 5185 14.530842
5186 4 -2.779457
5186 9 -2.702703
5186 5186 10.874684
5186 5187 -6.679913
5186 5188 2.287388
5187 2 -0.022523
5187 4 -0.688979
5187 5186 -4.591471
5187 5187 15.47365
5187 5188 -9.170677
5188 4 -6.377031
5188 5186 0.030917
5188 5187 -7.353758
5188 5188 14.699872
5189 4 -3.150896
5189 10 -2.702703
5189 5189 12.565125
5189 5190 -7.62286
5189 5191 1.911334
5190 2 -0.022523
5190 4 -0.565193
5190 5189 -6.225087
5190 5190 16.527166
5190 5191 -8.714363
5191 4 -6.442173
5191 5189 0.659571
5191 5190 -7.748239
5191 5191 14.530842
5192 4 -2.779457
5192 9 -2.702703
5192 5192 10.874684
5192 5193 -6.679913
5192 5194 2.287388
5193 2 -0.022523
5193 4 -0.688979
5193 5192 -4.591471
5193 5193 15.47365
5193 5194 -9.170677
5194 4 -6.377031
5194 5192 0.030917
5194 5193 -7.353758
5194 5194 14.699872
5195 4 -3.150896
5195 10 -2.702703
5195 5195 12.565125
5195 5196 -7.62286
5195 5197 1.911334
5196 2 -0.022523
5196 4 -0.565193
5196 5195 -6.225087
5196 5196 16.527166
5196 5197 -8.714363
5197 4 -6.442173
5197 5195 0.659571
5197 5196 -7.748239
5197 5197 14.530842
5198 4 -2.779457
5198 9 -2.702703
5198 5198 10.874684
5198 5199 -6.679913
5198 5200 2.287388
5199 2 -0.022523
5199 4 -0.688979
5199 5198 -4.591471
5199 5199 15.47365
5199 5200 -9.170677
5200 4 -6.377031
5200 5198 0.030917
5200 5199 -7.353758
5200 5200 14.699872
5201 4 -3.150896
5201 10 -2.702703
5201 5201 12.565125
5201 5202 -7.62286
5201 5203 1.911334
5202 2 -0.022523
5202 4 -0.565193
5202 5201 -6.225087
5202 5202 16.527166
5202 5203 -8.714363
5203 4 -6.442173
5203 5201 0.659571
5203 5202 -7.748239
5203 5203 14.530842
5204 4 -2.779457
5204 9 -2.702703
5204 5204 10.874684
5204 5205 -6.679913
5204 5206 2.287388
5205 2 -0.022523
5205 4 -0.688979
5205 5204 -4.591471
5205 5205 15.47365
5205 5206 -9.170677
5206 4 -6.377031
5206 5204 0.030917
5206 5205 -7.353758
5206 5206 14.699872
5207 4 -3.150896
5207 10 -2.702703
5207 5207 12.565125
5207 5208 -7.62286
5207 5209 1.911334
5208 2 -0.022523
5208 4 -0.565193
5208 5207 -6.225087
5208 5208 16.527166
5208 5209 -8.714363
5209 4 -6.442173
5209 5207 0.659571
5209 5208 -7.748239
5209 5209 14.530842
5210 4 -2.779457
5210 9 -2.702703
5210 5210 10.874684
5210 5211 -6.679913
5210 5212 2.287388
5211 2 -0.022523
5211 4 -0.688979
5211 5210 -4.591471
5211 5211 15.47365
5211 5212 -9.170677
5212 4 -6.377031
5212 5210 0.030917
5212 5211 -7.353758
5212 5212 14.699872
5213 4 -3.150904
5213 10 -2.702703
5213 5213 12.565217
5213 5214 -7.622916
5213 5215 1.911306
5214 2 -0.022523
5214 4 -0.565172
5214 5213 -6.225213
5214 5214 16.527233
5214 5215 -8.714326
5215 4 -7.725529
5215 5213 0.659625
5215 5214 -7.74827
5215 5215 15.814175
5216 4 -2.779453
5216 9 -2.702703
5216 5216 10.874734
5216 5217 -6.67996
5216 5218 2.287382
5217 2 -0.022523
5217 4 -0.688972
5217 5216 -4.591523
5217 5217 15.473689
5217 5218 -9.170672
5218 4 -7.66026
5218 5216 0.030932
5218 5217 -7.353774
5218 5218 15.983103
5219 1 -15.837
5219 2 -74.9745
5219 4 -1.555
5219 6 -11.935
5219 5032 -0.4245
5219 5033 -2.832
5219 5219 296.098563
5219 5220 -4.054065
5219 5223 -0.03
5219 5227 -4.054065
5219 5233 -4.054065
5219 5239 -4.054065
5219 5245 -4.054065
5219 5251 -4.054065
5219 5257 -4.054065
5219 5263 -4.054065
5219 5269 -4.054065
5219 5275 -4.054065
5219 5281 -4.054065
5219 5287 -4.054065
5219 5293 -4.054065
5219 5299 -4.054065
5219 5305 -4.054065
5219 5311 -4.054065
5219 5317 -4.054065
5219 5323 -4.054065
5219 5329 -4.054065
5219 5335 -4.054065
5219 5341 -4.054065
5219 5347 -4.054065
5219 5353 -4.054065
5219 5359 -4.054065
5219 5365 -4.054065
5219 5371 -4.054065
5219 5377 -4.054065
5219 5383 -4.054065
5219 5389 -4.054065
5219 5395 -4.054065
5219 5401 -4.054065
5219 5407 -4.054065
5219 5413 -4.054065
5219 5419 -4.054065
5219 5425 -4.054065
5219 5431 -4.054065
5219 5437 -4.054065
5219 5443 -4.054065
5219 5449 -4.054065
5219 5455 -4.054065
5219 5461 -4.054065
5219 5467 -4.054065
5219 5473 -4.054065
5219 5479 -4.054065
5219 5485 -2.674898
5219 5493 -0.802472
5219 5499 -1.216214
5219 5505 -1.216214
5219 5511 -1.216214
5219 5517 -1.216214
5219 5523 -0.789478
5220 2 -4.544139
5220 5219 -4.054065
5220 5220 18.634775
5220 5221 -11.206953
5220 5222 2.170382
5221 2 -0.551617
5221 6 -0.013755
5221 5220 -10.293245
5221 5221 23.505231
5221 5222 -11.646614
5222 2 -10.147622
5222 5220 1.340354
5222 5221 -11.212306
5222 5222 21.019574
5223 1 -15.7255
5223 2 -75.113
5223 4 -1.5575
5223 6 -11.9355
5223 5032 -2.8285
5223 5033 -0.4245
5223 5219 -0.03
5223 5223 296.125063
5223 5224 -4.054065
5223 5230 -4.054065
5223 5236 -4.054065
5223 5242 -4.054065
5223 5248 -4.054065
5223 5254 -4.054065
5223 5260 -4.054065
5223 5266 -4.054065
5223 5272 -4.054065
5223 5278 -4.054065
5223 5284 -4.054065
5223 5290 -4.054065
5223 5296 -4.054065
5223 5302 -4.054065
5223 5308 -4.054065
5223 5314 -4.054065
5223 5320 -4.054065
5223 5326 -4.054065
5223 5332 -4.054065
5223 5338 -4.054065
5223 5344 -4.054065
5223 5350 -4.054065
5223 5356 -4.054065
5223 5362 -4.054065
5223 5368 -4.054065
5223 5374 -4.054065
5223 5380 -4.054065
5223 5386 -4.054065
5223 5392 -4.054065
5223 5398 -4.054065
5223 5404 -4.054065
5223 5410 -4.054065
5223 5416 -4.054065
5223 5422 -4.054065
5223 5428 -4.054065
5223 5434 -4.054065
5223 5440 -4.054065
5223 5446 -4.054065
5223 5452 -4.054065
5223 5458 -4.054065
5223 5464 -4.054065
5223 5470 -4.054065
5223 5476 -4.054065
5223 5482 -4.054065
5223 5488 -2.674898
5223 5496 -0.802472
5223 5502 -1.216214
5223 5508 -1.216214
5223 5514 -1.216214
5223 5520 -1.216214
5223 5526 -0.789478
5224 2 -4.5704
5224 5223 -4.054065
5224 5224 19.461513
5224 5225 -11.217634
5224 5226 1.380586
5225 2 -0.549694
5225 6 -0.013755
5225 5224 -11.578798
5225 5225 23.520195
5225 5226 -10.377948
5226 2 -10.14858
5226 5224 2.132054
5226 5225 -11.217595
5226 5226 20.234121
5227 2 -4.544139
5227 5219 -4.054065
5227 5227 18.634763
5227 5228 -11.20695
5227 5229 2.170391
5228 2 -0.551618
5228 6 -0.013755
5228 5227 -10.293223
5228 5228 23.505227
5228 5229 -11.64663
5229 2 -8.623334
5229 5227 1.340343
5229 5228 -11.212304
5229 5229 19.495295
5230 2 -4.5704
5230 5223 -4.054065
5230 5230 19.461513
5230 5231 -11.217634
5230 5232 1.380586
5231 2 -0.549694
5231 6 -0.013755
5231 5230 -11.578799
5231 5231 23.520195
5231 5232 -10.377948
5232 2 -8.624266
5232 5230 2.132054
5232 5231 -11.217595
5232 5232 18.709807
5233 2 -4.544139
5233 5219 -4.054065
5233 5233 18.634763
5233 5234 -11.20695
5233 5235 2.170391
5234 2 -0.551618
5234 6 -0.013755
5234 5233 -10.293223
5234 5234 23.505227
5234 5235 -11.64663
5235 2 -8.623334
5235 5233 1.340343
5235 5234 -11.212304
5235 5235 19.495295
5236 2 -4.5704
5236 5223 -4.054065
5236 5236 19.461513
5236 5237 -11.217634
5236 5238 1.380586
5237 2 -0.549694
5237 6 -0.013755
5237 5236 -11.578799
5237 5237 23.520195
5237 5238 -10.377948
5238 2 -8.624266
5238 5236 2.132054
5238 5237 -11.217595
5238 5238 18.709807
5239 2 -4.544139
5239 5219 -4.054065
5239 5239 18.634763
5239 5240 -11.20695
5239 5241 2.170391
5240 2 -0.551618
5240 6 -0.013755
5240 5239 -10.293223
5240 5240 23.505227
5240 5241 -11.64663
5241 2 -8.623334
5241 5239 1.340343
5241 5240 -11.212304
5241 5241 19.495295
5242 2 -4.5704
5242 5223 -4.054065
5242 5242 19.461513
5242 5243 -11.217634
5242 5244 1.380586
5243 2 -0.549694
5243 6 -0.013755
5243 5242 -11.578799
5243 5243 23.520195
5243 5244 -10.377948
5244 2 -8.624266
5244 5242 2.132054
5244 5243 -11.217595
5244 5244 18.709807
5245 2 -4.544139
5245 5219 -4.054065
5245 5245 18.634763
5245 5246 -11.20695
5245 5247 2.170391
5246 2 -0.551618
5246 6 -0.013755
5246 5245 -10.293223
5246 5246 23.505227
5246 5247 -11.64663
5247 2 -8.623334
5247 5245 1.340343
5247 5246 -11.212304
5247 5247 19.495295
5248 2 -4.5704
5248 5223 -4.054065
5248 5248 19.461513
5248 5249 -11.217634
5248 5250 1.380586
5249 2 -0.549694
5249 6 -0.013755
5249 5248 -11.578799
5249 5249 23.520195
5249 5250 -10.377948
5250 2 -8.624266
5250 5248 2.132054
5250 5249 -11.217595
5250 5250 18.709807
5251 2 -4.544139
5251 5219 -4.054065
5251 5251 18.634763
5251 5252 -11.20695
5251 5253 2.170391
5252 2 -0.551618
5252 6 -0.013755
5252 5251 -10.293223
5252 5252 23.505227
5252 5253 -11.64663
5253 2 -8.623334
5253 5251 1.340343
5253 5252 -11.212304
5253 5253 19.495295
5254 2 -4.5704
5254 5223 -4.054065
5254 5254 19.461513
5254 5255 -11.217634
5254 5256 1.380586
5255 2 -0.549694
5255 6 -0.013755
5255 5254 -11.578799
5255 5255 23.520195
5255 5256 -10.377948
5256 2 -8.624266
5256 5254 2.132054
5256 5255 -11.217595
5256 5256 18.709807
5257 2 -4.544139
5257 5219 -4.054065
5257 5257 18.634763
5257 5258 -11.20695
5257 5259 2.170391
5258 2 -0.551618
5258 6 -0.013755
5258 5257 -10.293223
5258 5258 23.505227
5258 5259 -11.64663
5259 2 -8.623334
5259 5257 1.340343
5259 5258 -11.212304
5259 5259 19.495295
5260 2 -4.5704
5260 5223 -4.054065
5260 5260 19.461513
5260 5261 -11.217634
5260 5262 1.380586
5261 2 -0.549694
5261 6 -0.013755
5261 5260 -11.578799
5261 5261 23.520195
5261 5262 -10.377948
5262 2 -8.624266
5262 5260 2.132054
5262 5261 -11.217595
5262 5262 18.709807
5263 2 -4.544139
5263 5219 -4.054065
5263 5263 18.634763
5263 5264 -11.20695
5263 5265 2.170391
5264 2 -0.551618
5264 6 -0.013755
5264 5263 -10.293223
5264 5264 23.505227
5264 5265 -11.64663
5265 2 -8.623334
5265 5263 1.340343
5265 5264 -11.212304
5265 5265 19.495295
5266 2 -4.5704
5266 5223 -4.054065
5266 5266 19.461513
5266 5267 -11.217634
5266 5268 1.380586
5267 2 -0.549694
5267 6 -0.013755
5267 5266 -11.578799
5267 5267 23.520195
5267 5268 -10.377948
5268 2 -8.624266
5268 5266 2.132054
5268 5267 -11.217595
5268 5268 18.709807
5269 2 -4.544139
5269 5219 -4.054065
5269 5269 18.634763
5269 5270 -11.20695
5269 5271 2.170391
5270 2 -0.551618
5270 6 -0.013755
5270 5269 -10.293223
5270 5270 23.505227
5270 5271 -11.64663
5271 2 -8.623334
5271 5269 1.340343
5271 5270 -11.212304
5271 5271 19.495295
5272 2 -4.5704
5272 5223 -4.054065
5272 5272 19.461513
5272 5273 -11.217634
5272 5274 1.380586
5273 2 -0.549694
5273 6 -0.013755
5273 5272 -11.578799
5273 5273 23.520195
5273 5274 -10.377948
5274 2 -8.624266
5274 5272 2.132054
5274 5273 -11.217595
5274 5274 18.709807
5275 2 -4.544139
5275 5219 -4.054065
5275 5275 18.634763
5275 5276 -11.20695
5275 5277 2.170391
5276 2 -0.551618
5276 6 -0.013755
5276 5275 -10.293223
5276 5276 23.505227
5276 5277 -11.64663
5277 2 -8.623334
5277 5275 1.340343
5277 5276 -11.212304
5277 5277 19.495295
5278 2 -4.5704
5278 5223 -4.054065
5278 5278 19.461513
5278 5279 -11.217634
5278 5280 1.380586
5279 2 -0.549694
5279 6 -0.013755
5279 5278 -11.578799
5279 5279 23.520195
5279 5280 -10.377948
5280 2 -8.624266
5280 5278 2.132054
5280 5279 -11.217595
5280 5280 18.709807
5281 2 -4.544139
5281 5219 -4.054065
5281 5281 18.634763
5281 5282 -11.20695
5281 5283 2.170391
5282 2 -0.551618
5282 6 -0.013755
5282 5281 -10.293223
5282 5282 23.505227
5282 5283 -11.64663
5283 2 -8.623334
5283 5281 1.340343
5283 5282 -11.212304
5283 5283 19.495295
5284 2 -4.5704
5284 5223 -4.054065
5284 5284 19.461513
5284 5285 -11.217634
5284 5286 1.380586
5285 2 -0.549694
5285 6 -0.013755
5285 5284 -11.578799
5285 5285 23.520195
5285 5286 -10.377948
5286 2 -8.624266
5286 5284 2.132054
5286 5285 -11.217595
5286 5286 18.709807
5287 2 -4.544139
5287 5219 -4.054065
5287 5287 18.634763
5287 5288 -11.20695
5287 5289 2.170391
5288 2 -0.551618
5288 6 -0.013755
5288 5287 -10.293223
5288 5288 23.505227
5288 5289 -11.64663
5289 2 -8.623334
5289 5287 1.340343
5289 5288 -11.212304
5289 5289 19.495295
5290 2 -4.5704
5290 5223 -4.054065
5290 5290 19.461513
5290 5291 -11.217634
5290 5292 1.380586
5291 2 -0.549694
5291 6 -0.013755
5291 5290 -11.578799
5291 5291 23.520195
5291 5292 -10.377948
5292 2 -8.624266
5292 5290 2.132054
5292 5291 -11.217595
5292 5292 18.709807
5293 2 -4.544139
5293 5219 -4.054065
5293 5293 18.634763
5293 5294 -11.20695
5293 5295 2.170391
5294 2 -0.551618
5294 6 -0.013755
5294 5293 -10.293223
5294 5294 23.505227
5294 5295 -11.64663
5295 2 -8.623334
5295 5293 1.340343
5295 5294 -11.212304
5295 5295 19.495295
5296 2 -4.5704
5296 5223 -4.054065
5296 5296 19.461513
5296 5297 -11.217634
5296 5298 1.380586
5297 2 -0.549694
5297 6 -0.013755
5297 5296 -11.578799
5297 5297 23.520195
5297 5298 -10.377948
5298 2 -8.624266
5298 5296 2.132054
5298 5297 -11.217595
5298 5298 18.709807
5299 2 -4.544139
5299 5219 -4.054065
5299 5299 18.634763
5299 5300 -11.20695
5299 5301 2.170391
5300 2 -0.551618
5300 6 -0.013755
5300 5299 -10.293223
5300 5300 23.505227
5300 5301 -11.64663
5301 2 -8.623334
5301 5299 1.340343
5301 5300 -11.212304
5301 5301 19.495295
5302 2 -4.5704
5302 5223 -4.054065
5302 5302 19.461513
5302 5303 -11.217634
5302 5304 1.380586
5303 2 -0.549694
5303 6 -0.013755
5303 5302 -11.578799
5303 5303 23.520195
5303 5304 -10.377948
5304 2 -8.624266
5304 5302 2.132054
5304 5303 -11.217595
5304 5304 18.709807
5305 2 -4.544139
5305 5219 -4.054065
5305 5305 18.634763
5305 5306 -11.20695
5305 5307 2.170391
5306 2 -0.551618
5306 6 -0.013755
5306 5305 -10.293223
5306 5306 23.505227
5306 5307 -11.64663
5307 2 -8.623334
5307 5305 1.340343
5307 5306 -11.212304
5307 5307 19.495295
5308 2 -4.5704
5308 5223 -4.054065
5308 5308 19.461513
5308 5309 -11.217634
5308 5310 1.380586
5309 2 -0.549694
5309 6 -0.013755
5309 5308 -11.578799
5309 5309 23.520195
5309 5310 -10.377948
5310 2 -8.624266
5310 5308 2.132054
5310 5309 -11.217595
5310 5310 18.709807
5311 2 -4.544139
5311 5219 -4.054065
5311 5311 18.634763
5311 5312 -11.20695
5311 5313 2.170391
5312 2 -0.551618
5312 6 -0.013755
5312 5311 -10.293223
5312 5312 23.505227
5312 5313 -11.64663
5313 2 -8.623334
5313 5311 1.340343
5313 5312 -11.212304
5313 5313 19.495295
5314 2 -4.5704
5314 5223 -4.054065
5314 5314 19.461513
5314 5315 -11.217634
5314 5316 1.380586
5315 2 -0.549694
5315 6 -0.013755
5315 5314 -11.578799
5315 5315 23.520195
5315 5316 -10.377948
5316 2 -8.624266
5316 5314 2.132054
5316 5315 -11.217595
5316 5316 18.709807
5317 2 -4.544139
5317 5219 -4.054065
5317 5317 18.634763
5317 5318 -11.20695
5317 5319 2.170391
5318 2 -0.551618
5318 6 -0.013755
5318 5317 -10.293223
5318 5318 23.505227
5318 5319 -11.64663
5319 2 -8.623334
5319 5317 1.340343
5319 5318 -11.212304
5319 5319 19.495295
5320 2 -4.5704
5320 5223 -4.054065
5320 5320 19.461513
5320 5321 -11.217634
5320 5322 1.380586
5321 2 -0.549694
5321 6 -0.013755
5321 5320 -11.578799
5321 5321 23.520195
5321 5322 -10.377948
5322 2 -8.624266
5322 5320 2.132054
5322 5321 -11.217595
5322 5322 18.709807
5323 2 -4.544139
5323 5219 -4.054065
5323 5323 18.634763
5323 5324 -11.20695
5323 5325 2.170391
5324 2 -0.551618
5324 6 -0.013755
5324 5323 -10.293223
5324 5324 23.505227
5324 5325 -11.64663
5325 2 -8.623334
5325 5323 1.340343
5325 5324 -11.212304
5325 5325 19.495295
5326 2 -4.5704
5326 5223 -4.054065
5326 5326 19.461513
5326 5327 -11.217634
5326 5328 1.380586
5327 2 -0.549694
5327 6 -0.013755
5327 5326 -11.578799
5327 5327 23.520195
5327 5328 -10.377948
5328 2 -8.624266
5328 5326 2.132054
5328 5327 -11.217595
5328 5328 18.709807
5329 2 -4.544139
5329 5219 -4.054065
5329 5329 18.634763
5329 5330 -11.20695
5329 5331 2.170391
5330 2 -0.551618
5330 6 -0.013755
5330 5329 -10.293223
5330 5330 23.505227
5330 5331 -11.64663
5331 2 -8.623334
5331 5329 1.340343
5331 5330 -11.212304
5331 5331 19.495295
5332 2 -4.5704
5332 5223 -4.054065
5332 5332 19.461513
5332 5333 -11.217634
5332 5334 1.380586
5333 2 -0.549694
5333 6 -0.013755
5333 5332 -11.578799
5333 5333 23.520195
5333 5334 -10.377948
5334 2 -8.624266
5334 5332 2.132054
5334 5333 -11.217595
5334 5334 18.709807
5335 2 -4.544139
5335 5219 -4.054065
5335 5335 18.634763
5335 5336 -11.20695
5335 5337 2.170391
5336 2 -0.551618
5336 6 -0.013755
5336 5335 -10.293223
5336 5336 23.505227
5336 5337 -11.64663
5337 2 -8.623334
5337 5335 1.340343
5337 5336 -11.212304
5337 5337 19.495295
5338 2 -4.5704
5338 5223 -4.054065
5338 5338 19.461513
5338 5339 -11.217634
5338 5340 1.380586
5339 2 -0.549694
5339 6 -0.013755
5339 5338 -11.578799
5339 5339 23.520195
5339 5340 -10.377948
5340 2 -8.624266
5340 5338 2.132054
5340 5339 -11.217595
5340 5340 18.709807
5341 2 -4.544139
5341 5219 -4.054065
5341 5341 18.634763
5341 5342 -11.20695
5341 5343 2.170391
5342 2 -0.551618
5342 6 -0.013755
5342 5341 -10.293223
5342 5342 23.505227
5342 5343 -11.64663
5343 2 -8.623334
5343 5341 1.340343
5343 5342 -11.212304
5343 5343 19.495295
5344 2 -4.5704
5344 5223 -4.054065
5344 5344 19.461513
5344 5345 -11.217634
5344 5346 1.380586
5345 2 -0.549694
5345 6 -0.013755
5345 5344 -11.578799
5345 5345 23.520195
5345 5346 -10.377948
5346 2 -8.624266
5346 5344 2.132054
5346 5345 -11.217595
5346 5346 18.709807
5347 2 -4.544139
5347 5219 -4.054065
5347 5347 18.634763
5347 5348 -11.20695
5347 5349 2.170391
5348 2 -0.551618
5348 6 -0.013755
5348 5347 -10.293223
5348 5348 23.505227
5348 5349 -11.64663
5349 2 -8.623334
5349 5347 1.340343
5349 5348 -11.212304
5349 5349 19.495295
5350 2 -4.5704
5350 5223 -4.054065
5350 5350 19.461513
5350 5351 -11.217634
5350 5352 1.380586
5351 2 -0.549694
5351 6 -0.013755
5351 5350 -11.578799
5351 5351 23.520195
5351 5352 -10.377948
5352 2 -8.624266
5352 5350 2.132054
5352 5351 -11.217595
5352 5352 18.709807
5353 2 -4.544139
5353 5219 -4.054065
5353 5353 18.634763
5353 5354 -11.20695
5353 5355 2.170391
5354 2 -0.551618
5354 6 -0.013755
5354 5353 -10.293223
5354 5354 23.505227
5354 5355 -11.64663
5355 2 -8.623334
5355 5353 1.340343
5355 5354 -11.212304
5355 5355 19.495295
5356 2 -4.5704
5356 5223 -4.054065
5356 5356 19.461513
5356 5357 -11.217634
5356 5358 1.380586
5357 2 -0.549694
5357 6 -0.013755
5357 5356 -11.578799
5357 5357 23.520195
5357 5358 -10.377948
5358 2 -8.624266
5358 5356 2.132054
5358 5357 -11.217595
5358 5358 18.709807
5359 2 -4.544139
5359 5219 -4.054065
5359 5359 18.634763
5359 5360 -11.20695
5359 5361 2.170391
5360 2 -0.551618
5360 6 -0.013755
5360 5359 -10.293223
5360 5360 23.505227
5360 5361 -11.64663
5361 2 -8.623334
5361 5359 1.340343
5361 5360 -11.212304
5361 5361 19.495295
5362 2 -4.5704
5362 5223 -4.054065
5362 5362 19.461513
5362 5363 -11.217634
5362 5364 1.380586
5363 2 -0.549694
5363 6 -0.013755
5363 5362 -11.578799
5363 5363 23.520195
5363 5364 -10.377948
5364 2 -8.624266
5364 5362 2.132054
5364 5363 -11.217595
5364 5364 18.709807
5365 2 -4.544139
5365 5219 -4.054065
5365 5365 18.634763
5365 5366 -11.20695
5365 5367 2.170391
5366 2 -0.551618
5366 6 -0.013755
5366 5365 -10.293223
5366 5366 23.505227
5366 5367 -11.64663
5367 2 -8.623334
5367 5365 1.340343
5367 5366 -11.212304
5367 5367 19.495295
5368 2 -4.5704
5368 5223 -4.054065
5368 5368 19.461513
5368 5369 -11.217634
5368 5370 1.380586
5369 2 -0.549694
5369 6 -0.013755
5369 5368 -11.578799
5369 5369 23.520195
5369 5370 -10.377948
5370 2 -8.624266
5370 5368 2.132054
5370 5369 -11.217595
5370 5370 18.709807
5371 2 -4.544139
5371 5219 -4.054065
5371 5371 18.634763
5371 5372 -11.20695
5371 5373 2.170391
5372 2 -0.551618
5372 6 -0.013755
5372 5371 -10.293223
5372 5372 23.505227
5372 5373 -11.64663
5373 2 -8.623334
5373 5371 1.340343
5373 5372 -11.212304
5373 5373 19.495295
5374 2 -4.5704
5374 5223 -4.054065
5374 5374 19.461513
5374 5375 -11.217634
5374 5376 1.380586
5375 2 -0.549694
5375 6 -0.013755
5375 5374 -11.578799
5375 5375 23.520195
5375 5376 -10.377948
5376 2 -8.624266
5376 5374 2.132054
5376 5375 -11.217595
5376 5376 18.709807
5377 2 -4.544139
5377 5219 -4.054065
5377 5377 18.634763
5377 5378 -11.20695
5377 5379 2.170391
5378 2 -0.551618
5378 6 -0.013755
5378 5377 -10.293223
5378 5378 23.505227
5378 5379 -11.64663
5379 2 -8.623334
5379 5377 1.340343
5379 5378 -11.212304
5379 5379 19.495295
5380 2 -4.5704
5380 5223 -4.054065
5380 5380 19.461513
5380 5381 -11.217634
5380 5382 1.380586
5381 2 -0.549694
5381 6 -0.013755
5381 5380 -11.578799
5381 5381 23.520195
5381 5382 -10.377948
5382 2 -8.624266
5382 5380 2.132054
5382 5381 -11.217595
5382 5382 18.709807
5383 2 -4.544139
5383 5219 -4.054065
5383 5383 18.634763
5383 5384 -11.20695
5383 5385 2.170391
5384 2 -0.551618
5384 6 -0.013755
5384 5383 -10.293223
5384 5384 23.505227
5384 5385 -11.64663
5385 2 -8.623334
5385 5383 1.340343
5385 5384 -11.212304
5385 5385 19.495295
5386 2 -4.5704
5386 5223 -4.054065
5386 5386 19.461513
5386 5387 -11.217634
5386 5388 1.380586
5387 2 -0.549694
5387 6 -0.013755
5387 5386 -11.578799
5387 5387 23.520195
5387 5388 -10.377948
5388 2 -8.624266
5388 5386 2.132054
5388 5387 -11.217595
5388 5388 18.709807
5389 2 -4.544139
5389 5219 -4.054065
5389 5389 18.634763
5389 5390 -11.20695
5389 5391 2.170391
5390 2 -0.551618
5390 6 -0.013755
5390 5389 -10.293223
5390 5390 23.505227
5390 5391 -11.64663
5391 2 -8.623334
5391 5389 1.340343
5391 5390 -11.212304
5391 5391 19.495295
5392 2 -4.5704
5392 5223 -4.054065
5392 5392 19.461513
5392 5393 -11.217634
5392 5394 1.380586
5393 2 -0.549694
5393 6 -0.013755
5393 5392 -11.578799
5393 5393 23.520195
5393 5394 -10.377948
5394 2 -8.624266
5394 5392 2.132054
5394 5393 -11.217595
5394 5394 18.709807
5395 2 -4.544139
5395 5219 -4.054065
5395 5395 18.634763
5395 5396 -11.20695
5395 5397 2.170391
5396 2 -0.551618
5396 6 -0.013755
5396 5395 -10.293223
5396 5396 23.505227
5396 5397 -11.64663
5397 2 -8.623334
5397 5395 1.340343
5397 5396 -11.212304
5397 5397 19.495295
5398 2 -4.5704
5398 5223 -4.054065
5398 5398 19.461513
5398 5399 -11.217634
5398 5400 1.380586
5399 2 -0.549694
5399 6 -0.013755
5399 5398 -11.578799
5399 5399 23.520195
5399 5400 -10.377948
5400 2 -8.624266
5400 5398 2.132054
5400 5399 -11.217595
5400 5400 18.709807
5401 2 -4.544139
5401 5219 -4.054065
5401 5401 18.634763
5401 5402 -11.20695
5401 5403 2.170391
5402 2 -0.551618
5402 6 -0.013755
5402 5401 -10.293223
5402 5402 23.505227
5402 5403 -11.64663
5403 2 -8.623334
5403 5401 1.340343
5403 5402 -11.212304
5403 5403 19.495295
5404 2 -4.5704
5404 5223 -4.054065
5404 5404 19.461513
5404 5405 -11.217634
5404 5406 1.380586
5405 2 -0.549694
5405 6 -0.013755
5405 5404 -11.578799
5405 5405 23.520195
5405 5406 -10.377948
5406 2 -8.624266
5406 5404 2.132054
5406 5405 -11.217595
5406 5406 18.709807
5407 2 -4.544139
5407 5219 -4.054065
5407 5407 18.634763
5407 5408 -11.20695
5407 5409 2.170391
5408 2 -0.551618
5408 6 -0.013755
5408 5407 -10.293223
5408 5408 23.505227
5408 5409 -11.64663
5409 2 -8.623334
5409 5407 1.340343
5409 5408 -11.212304
5409 5409 19.495295
5410 2 -4.5704
5410 5223 -4.054065
5410 5410 19.461513
5410 5411 -11.217634
5410 5412 1.380586
5411 2 -0.549694
5411 6 -0.013755
5411 5410 -11.578799
5411 5411 23.520195
5411 5412 -10.377948
5412 2 -8.624266
5412 5410 2.132054
5412 5411 -11.217595
5412 5412 18.709807
5413 2 -4.544139
5413 5219 -4.054065
5413 5413 18.634763
5413 5414 -11.20695
5413 5415 2.170391
5414 2 -0.551618
5414 6 -0.013755
5414 5413 -10.293223
5414 5414 23.505227
5414 5415 -11.64663
5415 2 -8.623334
5415 5413 1.340343
5415 5414 -11.212304
5415 5415 19.495295
5416 2 -4.5704
5416 5223 -4.054065
5416 5416 19.461513
5416 5417 -11.217634
5416 5418 1.380586
5417 2 -0.549694
5417 6 -0.013755
5417 5416 -11.578799
5417 5417 23.520195
5417 5418 -10.377948
5418 2 -8.624266
5418 5416 2.132054
5418 5417 -11.217595
5418 5418 18.709807
5419 2 -4.544139
5419 5219 -4.054065
5419 5419 18.634763
5419 5420 -11.20695
5419 5421 2.170391
5420 2 -0.551618
5420 6 -0.013755
5420 5419 -10.293223
5420 5420 23.505227
5420 5421 -11.64663
5421 2 -8.623334
5421 5419 1.340343
5421 5420 -11.212304
5421 5421 19.495295
5422 2 -4.5704
5422 5223 -4.054065
5422 5422 19.461513
5422 5423 -11.217634
5422 5424 1.380586
5423 2 -0.549694
5423 6 -0.013755
5423 5422 -11.578799
5423 5423 23.520195
5423 5424 -10.377948
5424 2 -8.624266
5424 5422 2.132054
5424 5423 -11.217595
5424 5424 18.709807
5425 2 -4.544139
5425 5219 -4.054065
5425 5425 18.634763
5425 5426 -11.20695
5425 5427 2.170391
5426 2 -0.551618
5426 6 -0.013755
5426 5425 -10.293223
5426 5426 23.505227
5426 5427 -11.64663
5427 2 -8.623334
5427 5425 1.340343
5427 5426 -11.212304
5427 5427 19.495295
5428 2 -4.5704
5428 5223 -4.054065
5428 5428 19.461513
5428 5429 -11.217634
5428 5430 1.380586
5429 2 -0.549694
5429 6 -0.013755
5429 5428 -11.578799
5429 5429 23.520195
5429 5430 -10.377948
5430 2 -8.624266
5430 5428 2.132054
5430 5429 -11.217595
5430 5430 18.709807
5431 2 -4.544139
5431 5219 -4.054065
5431 5431 18.634763
5431 5432 -11.20695
5431 5433 2.170391
5432 2 -0.551618
5432 6 -0.013755
5432 5431 -10.293223
5432 5432 23.505227
5432 5433 -11.64663
5433 2 -8.623334
5433 5431 1.340343
5433 5432 -11.212304
5433 5433 19.495295
5434 2 -4.5704
5434 5223 -4.054065
5434 5434 19.461513
5434 5435 -11.217634
5434 5436 1.380586
5435 2 -0.549694
5435 6 -0.013755
5435 5434 -11.578799
5435 5435 23.520195
5435 5436 -10.377948
5436 2 -8.624266
5436 5434 2.132054
5436 5435 -11.217595
5436 5436 18.709807
5437 2 -4.544139
5437 5219 -4.054065
5437 5437 18.634763
5437 5438 -11.20695
5437 5439 2.170391
5438 2 -0.551618
5438 6 -0.013755
5438 5437 -10.293223
5438 5438 23.505227
5438 5439 -11.64663
5439 2 -8.623334
5439 5437 1.340343
5439 5438 -11.212304
5439 5439 19.495295
5440 2 -4.5704
5440 5223 -4.054065
5440 5440 19.461513
5440 5441 -11.217634
5440 5442 1.380586
5441 2 -0.549694
5441 6 -0.013755
5441 5440 -11.578799
5441 5441 23.520195
5441 5442 -10.377948
5442 2 -8.624266
5442 5440 2.132054
5442 5441 -11.217595
5442 5442 18.709807
5443 2 -4.544139
5443 5219 -4.054065
5443 5443 18.634763
5443 5444 -11.20695
5443 5445 2.170391
5444 2 -0.551618
5444 6 -0.013755
5444 5443 -10.293223
5444 5444 23.505227
5444 5445 -11.64663
5445 2 -8.623334
5445 5443 1.340343
5445 5444 -11.212304
5445 5445 19.495295
5446 2 -4.5704
5446 5223 -4.054065
5446 5446 19.461513
5446 5447 -11.217634
5446 5448 1.380586
5447 2 -0.549694
5447 6 -0.013755
5447 5446 -11.578799
5447 5447 23.520195
5447 5448 -10.377948
5448 2 -8.624266
5448 5446 2.132054
5448 5447 -11.217595
5448 5448 18.709807
5449 2 -4.544139
5449 5219 -4.054065
5449 5449 18.634763
5449 5450 -11.20695
5449 5451 2.170391
5450 2 -0.551618
5450 6 -0.013755
5450 5449 -10.293223
5450 5450 23.505227
5450 5451 -11.64663
5451 2 -8.623334
5451 5449 1.340343
5451 5450 -11.212304
5451 5451 19.495295
5452 2 -4.5704
5452 5223 -4.054065
5452 5452 19.461513
5452 5453 -11.217634
5452 5454 1.380586
5453 2 -0.549694
5453 6 -0.013755
5453 5452 -11.578799
5453 5453 23.520195
5453 5454 -10.377948
5454 2 -8.624266
5454 5452 2.132054
5454 5453 -11.217595
5454 5454 18.709807
5455 2 -4.544139
5455 5219 -4.054065
5455 5455 18.634763
5455 5456 -11.20695
5455 5457 2.170391
5456 2 -0.551618
5456 6 -0.013755
5456 5455 -10.293223
5456 5456 23.505227
5456 5457 -11.64663
5457 2 -8.623334
5457 5455 1.340343
5457 5456 -11.212304
5457 5457 19.495295
5458 2 -4.5704
5458 5223 -4.054065
5458 5458 19.461513
5458 5459 -11.217634
5458 5460 1.380586
5459 2 -0.549694
5459 6 -0.013755
5459 5458 -11.578799
5459 5459 23.520195
5459 5460 -10.377948
5460 2 -8.624266
5460 5458 2.132054
5460 5459 -11.217595
5460 5460 18.709807
5461 2 -4.544139
5461 5219 -4.054065
5461 5461 18.634763
5461 5462 -11.20695
5461 5463 2.170391
5462 2 -0.551618
5462 6 -0.013755
5462 5461 -10.293223
5462 5462 23.505227
5462 5463 -11.64663
5463 2 -8.623334
5463 5461 1.340343
5463 5462 -11.212304
5463 5463 19.495295
5464 2 -4.5704
5464 5223 -4.054065
5464 5464 19.461513
5464 5465 -11.217634
5464 5466 1.380586
5465 2 -0.549694
5465 6 -0.013755
5465 5464 -11.578799
5465 5465 23.520195
5465 5466 -10.377948
5466 2 -8.624266
5466 5464 2.132054
5466 5465 -11.217595
5466 5466 18.709807
5467 2 -4.544139
5467 5219 -4.054065
5467 5467 18.634763
5467 5468 -11.20695
5467 5469 2.170391
5468 2 -0.551618
5468 6 -0.013755
5468 5467 -10.293223
5468 5468 23.505227
5468 5469 -11.64663
5469 2 -8.623334
5469 5467 1.340343
5469 5468 -11.212304
5469 5469 19.495295
5470 2 -4.5704
5470 5223 -4.054065
5470 5470 19.461513
5470 5471 -11.217634
5470 5472 1.380586
5471 2 -0.549694
5471 6 -0.013755
5471 5470 -11.578799
5471 5471 23.520195
5471 5472 -10.377948
5472 2 -8.624266
5472 5470 2.132054
5472 5471 -11.217595
5472 5472 18.709807
5473 2 -4.544139
5473 5219 -4.054065
5473 5473 18.634763
5473 5474 -11.20695
5473 5475 2.170391
5474 2 -0.551618
5474 6 -0.013755
5474 5473 -10.293223
5474 5474 23.505227
5474 5475 -11.64663
5475 2 -8.623334
5475 5473 1.340343
5475 5474 -11.212304
5475 5475 19.495295
5476 2 -4.5704
5476 5223 -4.054065
5476 5476 19.461513
5476 5477 -11.217634
5476 5478 1.380586
5477 2 -0.549694
5477 6 -0.013755
5477 5476 -11.578799
5477 5477 23.520195
5477 5478 -10.377948
5478 2 -8.624266
5478 5476 2.132054
5478 5477 -11.217595
5478 5478 18.709807
5479 2 -4.544139
5479 5219 -4.054065
5479 5479 18.634763
5479 5480 -11.20695
5479 5481 2.170391
5480 2 -0.551618
5480 6 -0.013755
5480 5479 -10.293223
5480 5480 23.505227
5480 5481 -11.64663
5481 2 -8.623334
5481 5479 1.340343
5481 5480 -11.212304
5481 5481 19.495295
5482 2 -4.5704
5482 5223 -4.054065
5482 5482 19.461513
5482 5483 -11.217634
5482 5484 1.380586
5483 2 -0.549694
5483 6 -0.013755
5483 5482 -11.578799
5483 5483 23.520195
5483 5484 -10.377948
5484 2 -8.624266
5484 5482 2.132054
5484 5483 -11.217595
5484 5484 18.709807
5485 2 -6.926329
5485 5219 -2.674898
5485 5485 19.637801
5485 5486 -11.206953
5485 5487 2.17038
5486 2 -0.551618
5486 6 -0.013755
5486 5485 -10.293249
5486 5486 23.505232
5486 5487 -11.64661
5487 2 -8.623334
5487 5485 1.340355
5487 5486 -11.212306
5487 5487 19.495285
5488 2 -6.966735
5488 5223 -2.674898
5488 5488 20.478681
5488 5489 -11.217634
5488 5490 1.380586
5489 2 -0.549694
5489 6 -0.013755
5489 5488 -11.578798
5489 5489 23.520195
5489 5490 -10.377948
5490 2 -8.624266
5490 5488 2.132054
5490 5489 -11.217595
5490 5490 18.709807
5491 2 -1.35413
5491 5033 -1.216214
5491 5491 6.207351
5491 5492 -3.335226
5491 5493 0.698218
5492 2 -0.16184
5492 5032 -0.045872
5492 5491 -2.963729
5492 5492 7.744173
5492 5493 -3.572732
5493 2 -2.075177
5493 5219 -0.802472
5493 5491 0.331039
5493 5492 -3.346857
5493 5493 6.893466
5494 2 -0.995817
5494 5032 -1.216214
5494 5494 4.893148
5494 5495 -1.715007
5494 5496 0.03389
5495 2 -0.324362
5495 5033 -0.045872
5495 5494 -1.667869
5495 5495 4.987193
5495 5496 -1.94909
5496 2 -2.025807
5496 5223 -0.802472
5496 5494 -0.002299
5496 5495 -1.9233
5496 5496 5.753878
5497 2 -1.354131
5497 5033 -1.216214
5497 5497 6.207309
5497 5498 -3.335209
5497 5499 0.698245
5498 2 -0.161849
5498 5032 -0.045872
5498 5497 -2.963658
5498 5498 7.744145
5498 5499 -3.572767
5499 2 -1.471504
5499 5219 -1.216214
5499 5497 0.331007
5499 5498 -3.346845
5499 5499 6.703556
5500 2 -0.995817
5500 5032 -1.216214
5500 5500 4.893148
5500 5501 -1.715006
5500 5502 0.033889
5501 2 -0.324363
5501 5033 -0.045872
5501 5500 -1.667869
5501 5501 4.987191
5501 5502 -1.949087
5502 2 -1.418673
5502 5223 -1.216214
5502 5500 -0.002299
5502 5501 -1.923298
5502 5502 5.560484
5503 2 -1.354131
5503 5033 -1.216214
5503 5503 6.207309
5503 5504 -3.335209
5503 5505 0.698245
5504 2 -0.161849
5504 5032 -0.045872
5504 5503 -2.963658
5504 5504 7.744145
5504 5505 -3.572767
5505 2 -1.471504
5505 5219 -1.216214
5505 5503 0.331007
5505 5504 -3.346845
5505 5505 6.703556
5506 2 -0.995817
5506 5032 -1.216214
5506 5506 4.893148
5506 5507 -1.715006
5506 5508 0.033889
5507 2 -0.324363
5507 5033 -0.045872
5507 5506 -1.667869
5507 5507 4.987191
5507 5508 -1.949087
5508 2 -1.418673
5508 5223 -1.216214
5508 5506 -0.002299
5508 5507 -1.923298
5508 5508 5.560484
5509 2 -1.354131
5509 5033 -1.216214
5509 5509 6.207309
5509 5510 -3.335209
5509 5511 0.698245
5510 2 -0.161849
5510 5032 -0.045872
5510 5509 -2.963658
5510 5510 7.744145
5510 5511 -3.572767
5511 2 -1.471504
5511 5219 -1.216214
5511 5509 0.331007
5511 5510 -3.346845
5511 5511 6.703556
5512 2 -0.995817
5512 5032 -1.216214
5512 5512 4.893148
5512 5513 -1.715006
5512 5514 0.033889
5513 2 -0.324363
5513 5033 -0.045872
5513 5512 -1.667869
5513 5513 4.987191
5513 5514 -1.949087
5514 2 -1.418673
5514 5223 -1.216214
5514 5512 -0.002299
5514 5513 -1.923298
5514 5514 5.560484
5515 2 -1.354131
5515 5033 -1.216214
5515 5515 6.207309
5515 5516 -3.335209
5515 5517 0.698245
5516 2 -0.161849
5516 5032 -0.045872
5516 5515 -2.963658
5516 5516 7.744145
5516 5517 -3.572767
5517 2 -1.471504
5517 5219 -1.216214
5517 5515 0.331007
5517 5516 -3.346845
5517 5517 6.703556
5518 2 -0.995817
5518 5032 -1.216214
5518 5518 4.893148
5518 5519 -1.715006
5518 5520 0.033889
5519 2 -0.324363
5519 5033 -0.045872
5519 5518 -1.667869
5519 5519 4.987191
5519 5520 -1.949087
5520 2 -1.418673
5520 5223 -1.216214
5520 5518 -0.002299
5520 5519 -1.923298
5520 5520 5.560484
5521 2 -1.354129
5521 5033 -1.216214
5521 5521 6.207354
5521 5522 -3.335227
5521 5523 0.698217
5522 2 -0.161839
5522 5032 -0.045872
5522 5521 -2.963733
5522 5522 7.744174
5522 5523 -3.572731
5523 2 -2.409766
5523 5219 -0.789478
5523 5521 0.331041
5523 5522 -3.346857
5523 5523 7.215061
5524 2 -0.995817
5524 5032 -1.216214
5524 5524 4.893148
5524 5525 -1.715007
5524 5526 0.03389
5525 2 -0.324362
5525 5033 -0.045872
5525 5524 -1.667869
5525 5525 4.987193
5525 5526 -1.94909
5526 2 -2.363173
5526 5223 -0.789478
5526 5524 -0.002299
5526 5525 -1.9233
5526 5526 6.078249
5527 2 -0.716235
5527 5033 -0.608106
5527 5527 3.245537
5527 5528 -0.926414
5527 5529 0.005218
5528 2 -0.16551
5528 5028 -0.091743
5528 5527 -0.914911
5528 5528 3.121446
5528 5529 -0.949281
5529 2 -1.698931
5529 5527 -0.000334
5529 5528 -0.944853
5529 5529 3.644117
5530 2 -0.716235
5530 5033 -0.608106
5530 5530 3.245537
5530 5531 -0.926414
5530 5532 0.005218
5531 2 -0.16551
5531 5028 -0.091743
5531 5530 -0.914911
5531 5531 3.121446
5531 5532 -0.949281
5532 2 -1.698931
5532 5530 -0.000334
5532 5531 -0.944853
5532 5532 3.644117
5533 2 -0.560282
5533 5032 -0.608106
5533 5533 3.065567
5533 5534 -1.326561
5533 5535 0.429383
5534 2 -0.111621
5534 5030 -0.091743
5534 5533 -0.884029
5534 5534 3.980219
5534 5535 -1.892825
5535 2 -1.719426
5535 5533 -0.026946
5535 5534 -1.538553
5535 5535 4.284925
5536 2 -0.560282
5536 5032 -0.608106
5536 5536 3.065567
5536 5537 -1.326561
5536 5538 0.429383
5537 2 -0.111621
5537 5030 -0.091743
5537 5536 -0.884029
5537 5537 3.980219
5537 5538 -1.892825
5538 2 -1.719426
5538 5536 -0.026946
5538 5537 -1.538553
5538 5538 4.284925
5539 2 -2.247311
5539 5127 -2.837837
5539 5539 10.028853
5539 5540 -4.035293
5539 5541 0.091588
5540 2 -0.896605
5540 5033 -0.021413
5540 5539 -3.909648
5540 5540 10.402222
5540 5541 -4.574557
5541 2 -7.028013
5541 5539 -0.005787
5541 5540 -4.506152
5541 5541 12.539953
5542 2 -2.779004
5542 5131 -2.837837
5542 5542 12.528567
5542 5543 -8.090725
5542 5544 2.178999
5543 2 -0.479933
5543 5032 -0.021413
5543 5542 -6.467006
5543 5543 17.450618
5543 5544 -9.482266
5544 2 -7.183961
5544 5542 0.555651
5544 5543 -8.261899
5544 5544 15.890209
5545 2 -2.247311
5545 5127 -2.837837
5545 5545 10.028853
5545 5546 -4.03529
5545 5547 0.091586
5546 2 -0.896607
5546 5033 -0.021413
5546 5545 -3.909648
5546 5546 10.402216
5546 5547 -4.574548
5547 2 -5.93509
5547 5545 -0.005787
5547 5546 -4.506148
5547 5547 11.447026
5548 2 -2.779011
5548 5131 -2.837837
5548 5548 12.528382
5548 5549 -8.090597
5548 5550 2.179063
5549 2 -0.479967
5549 5032 -0.021413
5549 5548 -6.466731
5549 5549 17.450433
5549 5550 -9.482321
5550 2 -6.091727
5550 5548 0.555546
5550 5549 -8.26183
5550 5550 14.798011
5551 2 -2.247311
5551 5127 -2.837837
5551 5551 10.028853
5551 5552 -4.03529
5551 5553 0.091586
5552 2 -0.896607
5552 5033 -0.021413
5552 5551 -3.909648
5552 5552 10.402216
5552 5553 -4.574548
5553 2 -5.93509
5553 5551 -0.005787
5553 5552 -4.506148
5553 5553 11.447026
5554 2 -2.779011
5554 5131 -2.837837
5554 5554 12.528382
5554 5555 -8.090597
5554 5556 2.179063
5555 2 -0.479967
5555 5032 -0.021413
5555 5554 -6.466731
5555 5555 17.450433
5555 5556 -9.482321
5556 2 -6.091727
5556 5554 0.555546
5556 5555 -8.26183
5556 5556 14.798011
5557 2 -2.247311
5557 5127 -2.837837
5557 5557 10.028853
5557 5558 -4.035293
5557 5559 0.091588
5558 2 -0.896605
5558 5033 -0.021413
5558 5557 -3.909648
5558 5558 10.402222
5558 5559 -4.574557
5559 2 -7.028013
5559 5557 -0.005787
5559 5558 -4.506152
5559 5559 12.539953
5560 2 -2.779004
5560 5131 -2.837837
5560 5560 12.528567
5560 5561 -8.090725
5560 5562 2.178999
5561 2 -0.479933
5561 5032 -0.021413
5561 5560 -6.467006
5561 5561 17.450618
5561 5562 -9.482266
5562 2 -7.183961
5562 5560 0.555651
5562 5561 -8.261899
5562 5562 15.890209
5563 2 -2.63359
5563 10 -3.162165
5563 5563 11.48749
5563 5564 -7.341483
5563 5565 2.649749
5564 2 -0.649728
5564 5127 -0.019231
5564 5563 -4.625767
5564 5564 17.169838
5564 5565 -10.875112
5565 2 -7.935084
5565 5563 -0.149322
5565 5564 -8.583875
5565 5565 17.668281
5566 2 -2.886427
5566 9 -3.162165
5566 5566 11.593416
5566 5567 -6.772676
5566 5568 2.227852
5567 2 -0.73302
5567 5131 -0.019231
5567 5566 -4.478143
5567 5567 16.1426
5567 5568 -9.912206
5568 2 -7.921077
5568 5566 -0.138062
5568 5567 -7.974337
5568 5568 17.033476
5569 2 -2.633601
5569 10 -3.162165
5569 5569 11.487504
5569 5570 -7.341492
5569 5571 2.649754
5570 2 -0.649763
5570 5127 -0.019231
5570 5569 -4.625788
5570 5570 17.169851
5570 5571 -10.875069
5571 2 -6.727909
5571 5569 -0.149314
5571 5570 -8.583878
5571 5571 16.461101
5572 2 -2.886428
5572 9 -3.162165
5572 5572 11.593415
5572 5573 -6.772702
5572 5574 2.22788
5573 2 -0.733018
5573 5131 -0.019231
5573 5572 -4.478141
5573 5573 16.142658
5573 5574 -9.912269
5574 2 -6.713134
5574 5572 -0.138063
5574 5573 -7.974376
5574 5574 15.825573
5575 2 -2.633601
5575 10 -3.162165
5575 5575 11.487504
5575 5576 -7.341492
5575 5577 2.649754
5576 2 -0.649763
5576 5127 -0.019231
5576 5575 -4.625788
5576 5576 17.169851
5576 5577 -10.875069
5577 2 -6.727909
5577 5575 -0.149314
5577 5576 -8.583878
5577 5577 16.461101
5578 2 -2.886428
5578 9 -3.162165
5578 5578 11.593415
5578 5579 -6.772702
5578 5580 2.22788
5579 2 -0.733018
5579 5131 -0.019231
5579 5578 -4.478141
5579 5579 16.142658
5579 5580 -9.912269
5580 2 -6.713134
5580 5578 -0.138063
5580 5579 -7.974376
5580 5580 15.825573
5581 2 -2.633601
5581 10 -3.162165
5581 5581 11.487504
5581 5582 -7.341492
5581 5583 2.649754
5582 2 -0.649763
5582 5127 -0.019231
5582 5581 -4.625788
5582 5582 17.169851
5582 5583 -10.875069
5583 2 -6.727909
5583 5581 -0.149314
5583 5582 -8.583878
5583 5583 16.461101
5584 2 -2.886428
5584 9 -3.162165
5584 5584 11.593415
5584 5585 -6.772702
5584 5586 2.22788
5585 2 -0.733018
5585 5131 -0.019231
5585 5584 -4.478141
5585 5585 16.142658
5585 5586 -9.912269
5586 2 -6.713134
5586 5584 -0.138063
5586 5585 -7.974376
5586 5586 15.825573
5587 2 -2.633601
5587 10 -3.162165
5587 5587 11.487504
5587 5588 -7.341492
5587 5589 2.649754
5588 2 -0.649763
5588 5127 -0.019231
5588 5587 -4.625788
5588 5588 17.169851
5588 5589 -10.875069
5589 2 -6.727909
5589 5587 -0.149314
5589 5588 -8.583878
5589 5589 16.461101
5590 2 -2.886428
5590 9 -3.162165
5590 5590 11.593415
5590 5591 -6.772702
5590 5592 2.22788
5591 2 -0.733018
5591 5131 -0.019231
5591 5590 -4.478141
5591 5591 16.142658
5591 5592 -9.912269
5592 2 -6.713134
5592 5590 -0.138063
5592 5591 -7.974376
5592 5592 15.825573
5593 2 -2.633601
5593 10 -3.162165
5593 5593 11.487504
5593 5594 -7.341492
5593 5595 2.649754
5594 2 -0.649763
5594 5127 -0.019231
5594 5593 -4.625788
5594 5594 17.169851
5594 5595 -10.875069
5595 2 -6.727909
5595 5593 -0.149314
5595 5594 -8.583878
5595 5595 16.461101
5596 2 -2.886428
5596 9 -3.162165
5596 5596 11.593415
5596 5597 -6.772702
5596 5598 2.22788
5597 2 -0.733018
5597 5131 -0.019231
5597 5596 -4.478141
5597 5597 16.142658
5597 5598 -9.912269
5598 2 -6.713134
5598 5596 -0.138063
5598 5597 -7.974376
5598 5598 15.825573
5599 2 -2.633601
5599 10 -3.162165
5599 5599 11.487504
5599 5600 -7.341492
5599 5601 2.649754
5600 2 -0.649763
5600 5127 -0.019231
5600 5599 -4.625788
5600 5600 17.169851
5600 5601 -10.875069
5601 2 -6.727909
5601 5599 -0.149314
5601 5600 -8.583878
5601 5601 16.461101
5602 2 -2.886428
5602 9 -3.162165
5602 5602 11.593415
5602 5603 -6.772702
5602 5604 2.22788
5603 2 -0.733018
5603 5131 -0.019231
5603 5602 -4.478141
5603 5603 16.142658
5603 5604 -9.912269
5604 2 -6.713134
5604 5602 -0.138063
5604 5603 -7.974376
5604 5604 15.825573
5605 2 -2.633601
5605 10 -3.162165
5605 5605 11.487504
5605 5606 -7.341492
5605 5607 2.649754
5606 2 -0.649763
5606 5127 -0.019231
5606 5605 -4.625788
5606 5606 17.169851
5606 5607 -10.875069
5607 2 -6.727909
5607 5605 -0.149314
5607 5606 -8.583878
5607 5607 16.461101
5608 2 -2.886428
5608 9 -3.162165
5608 5608 11.593415
5608 5609 -6.772702
5608 5610 2.22788
5609 2 -0.733018
5609 5131 -0.019231
5609 5608 -4.478141
5609 5609 16.142658
5609 5610 -9.912269
5610 2 -6.713134
5610 5608 -0.138063
5610 5609 -7.974376
5610 5610 15.825573
5611 2 -2.633601
5611 10 -3.162165
5611 5611 11.487504
5611 5612 -7.341492
5611 5613 2.649754
5612 2 -0.649763
5612 5127 -0.019231
5612 5611 -4.625788
5612 5612 17.169851
5612 5613 -10.875069
5613 2 -6.727909
5613 5611 -0.149314
5613 5612 -8.583878
5613 5613 16.461101
5614 2 -2.886428
5614 9 -3.162165
5614 5614 11.593415
5614 5615 -6.772702
5614 5616 2.22788
5615 2 -0.733018
5615 5131 -0.019231
5615 5614 -4.478141
5615 5615 16.142658
5615 5616 -9.912269
5616 2 -6.713134
5616 5614 -0.138063
5616 5615 -7.974376
5616 5616 15.825573
5617 2 -2.633601
5617 10 -3.162165
5617 5617 11.487504
5617 5618 -7.341492
5617 5619 2.649754
5618 2 -0.649763
5618 5127 -0.019231
5618 5617 -4.625788
5618 5618 17.169851
5618 5619 -10.875069
5619 2 -6.727909
5619 5617 -0.149314
5619 5618 -8.583878
5619 5619 16.461101
5620 2 -2.886428
5620 9 -3.162165
5620 5620 11.593415
5620 5621 -6.772702
5620 5622 2.22788
5621 2 -0.733018
5621 5131 -0.019231
5621 5620 -4.478141
5621 5621 16.142658
5621 5622 -9.912269
5622 2 -6.713134
5622 5620 -0.138063
5622 5621 -7.974376
5622 5622 15.825573
5623 2 -4.30656
5623 10 -2.052634
5623 5623 12.051034
5623 5624 -7.341607
5623 5625 2.649767
5624 2 -0.649752
5624 5127 -0.019231
5624 5623 -4.625907
5624 5624 17.169978
5624 5625 -10.875088
5625 2 -6.727915
5625 5623 -0.149299
5625 5624 -8.583894
5625 5625 16.461108
5626 2 -4.749301
5626 9 -2.052634
5626 5626 12.346771
5626 5627 -6.772711
5626 5628 2.227874
5627 2 -0.733018
5627 5131 -0.019231
5627 5626 -4.478157
5627 5627 16.142659
5627 5628 -9.912254
5628 2 -6.713134
5628 5626 -0.138063
5628 5627 -7.974366
5628 5628 15.825563
5629 1 -1.739663
5629 5 -15.259295
5629 5028 -0.11236
5629 5629 18.111318
5630 1 -1.804785
5630 5 -17.420721
5630 5030 -0.11236
5630 5630 20.337866
5631 1 -1.739663
5631 5 -15.259295
5631 5028 -0.11236
5631 5631 18.111318
5632 1 -1.804785
5632 5 -17.420721
5632 5030 -0.11236
5632 5632 20.337866
5633 1 -1.739663
5633 5 -15.259295
5633 5028 -0.11236
5633 5633 18.111318
5634 1 -1.804785
5634 5 -17.420721
5634 5030 -0.11236
5634 5634 20.337866
5635 1 -1.740823
5635 5 -15.354157
5635 5033 -0.11236
5635 5635 18.207339
5636 1 -1.805346
5636 5 -17.420658
5636 5032 -0.11236
5636 5636 20.338363
5637 1 -1.740823
5637 5 -15.354157
5637 5033 -0.11236
5637 5637 18.207339
5638 1 -1.805346
5638 5 -17.420658
5638 5032 -0.11236
5638 5638 20.338363
5639 1 -1.740823
5639 5 -15.354157
5639 5033 -0.11236
5639 5639 18.207339
5640 1 -1.805346
5640 5 -17.420658
5640 5032 -0.11236
5640 5640 20.338363
5641 5028 -1.020408
5641 5641 2.020408
5641 7532 -1.0
5642 1 -19.606396
5642 5033 -27.7502
5642 5642 48.356596
5643 1 -19.606396
5643 5028 -27.7502
5643 5643 48.356596
5644 5030 -1.020408
5644 5644 2.020408
5644 7531 -1.0
5645 1 -19.606396
5645 5032 -27.7502
5645 5645 48.356596
5646 1 -19.606396
5646 5030 -27.7502
5646 5646 48.356596
5647 5031 -4.385965
5647 5647 5.385965
5647 7529 -1.0
5648 5034 -4.385965
5648 5648 5.385965
5648 7528 -1.0
5649 5649 5.385965
5649 5650 -4.385965
5649 7527 -1.0
5650 1 -16.8765
5650 2 -9.244
5650 4 -1.0705
5650 5 -2.0275
5650 5649 -4.385965
5650 5650 155.606038
5650 5654 -34.3644
5650 5655 -57.346
5650 6148 -0.091743
5650 6151 -0.091743
5650 6249 -0.11236
5650 6251 -0.11236
5650 6253 -0.11236
5650 6261 -1.020408
5650 6263 -27.7502
5651 5651 5.385965
5651 5652 -4.385965
5651 7530 -1.0
5652 1 -16.882
5652 2 -9.139
5652 4 -1.0705
5652 5 -2.094
5652 5651 -4.385965
5652 5652 155.555538
5652 5653 -34.3639
5652 5656 -57.329
5652 6154 -0.091743
5652 6157 -0.091743
5652 6250 -0.11236
5652 6252 -0.11236
5652 6254 -0.11236
5652 6264 -1.020408
5652 6266 -27.7502
5653 1 -41.117
5653 2 -16.5255
5653 4 -25.0715
5653 5 -2.03
5653 6 -0.315
5653 5652 -34.3639
5653 5653 256.827596
5653 5654 -12.9405
5653 5656 -63.223
5653 5658 -0.045872
5653 5660 -0.789478
5653 5664 -0.045872
5653 5666 -1.216214
5653 5670 -0.045872
5653 5672 -1.216214
5653 5676 -0.045872
5653 5678 -1.216214
5653 5682 -0.045872
5653 5684 -1.216214
5653 5688 -0.045872
5653 5690 -1.216214
5653 5694 -0.045872
5653 5696 -1.216214
5653 5700 -0.045872
5653 5702 -1.216214
5653 5706 -0.045872
5653 5708 -1.216214
5653 5712 -0.045872
5653 5714 -1.216214
5653 5718 -0.045872
5653 5720 -1.216214
5653 5724 -0.045872
5653 5726 -1.216214
5653 5730 -0.045872
5653 5732 -1.216214
5653 5736 -0.045872
5653 5738 -1.216214
5653 5742 -0.045872
5653 5744 -1.216214
5653 5751 -1.522
5653 5839 -0.4245
5653 5843 -2.8285
5653 6112 -0.045872
5653 6114 -1.216214
5653 6118 -0.045872
5653 6120 -1.216214
5653 6124 -0.045872
5653 6126 -1.216214
5653 6130 -0.045872
5653 6132 -1.216214
5653 6136 -0.045872
5653 6138 -1.216214
5653 6142 -0.045872
5653 6144 -1.216214
5653 6153 -0.608106
5653 6156 -0.608106
5653 6163 -0.021413
5653 6169 -0.021413
5653 6175 -0.021413
5653 6181 -0.021413
5653 6256 -0.11236
5653 6258 -0.11236
5653 6260 -0.11236
5653 6265 -27.7502
5653 7525 1.0
5653 7529 1.0
5654 1 -41.1965
5654 2 -16.6505
5654 4 -25.0385
5654 5 -1.968
5654 6 -0.31
5654 5650 -34.3644
5654 5653 -12.9405
5654 5654 256.913596
5654 5655 -63.2005
5654 5657 -0.789478
5654 5661 -0.045872
5654 5663 -1.216214
5654 5667 -0.045872
5654 5669 -1.216214
5654 5673 -0.045872
5654 5675 -1.216214
5654 5679 -0.045872
5654 5681 -1.216214
5654 5685 -0.045872
5654 5687 -1.216214
5654 5691 -0.045872
5654 5693 -1.216214
5654 5697 -0.045872
5654 5699 -1.216214
5654 5703 -0.045872
5654 5705 -1.216214
5654 5709 -0.045872
5654 5711 -1.216214
5654 5715 -0.045872
5654 5717 -1.216214
5654 5721 -0.045872
5654 5723 -1.216214
5654 5727 -0.045872
5654 5729 -1.216214
5654 5733 -0.045872
5654 5735 -1.216214
5654 5739 -0.045872
5654 5741 -1.216214
5654 5745 -0.045872
5654 5747 -1.522
5654 5839 -2.832
5654 5843 -0.4245
5654 6111 -1.216214
5654 6115 -0.045872
5654 6117 -1.216214
5654 6121 -0.045872
5654 6123 -1.216214
5654 6127 -0.045872
5654 6129 -1.216214
5654 6133 -0.045872
5654 6135 -1.216214
5654 6139 -0.045872
5654 6141 -1.216214
5654 6145 -0.045872
5654 6147 -0.608106
5654 6150 -0.608106
5654 6160 -0.021413
5654 6166 -0.021413
5654 6172 -0.021413
5654 6178 -0.021413
5654 6255 -0.11236
5654 6257 -0.11236
5654 6259 -0.11236
5654 6262 -27.7502
5654 7526 1.0
5654 7528 1.0
5655 1 -132.8115
5655 2 -194.2496
5655 4 -52.4615
5655 5 -55.2875
5655 7 -0.4625
5655 8 -0.4625
5655 5650 -57.346
5655 5654 -63.2005
5655 5655 557.2816
5656 1 -132.228
5656 2 -197.5526
5656 4 -52.4615
5656 5 -55.5525
5656 7 -0.531
5656 8 -0.531
5656 5652 -57.329
5656 5653 -63.223
5656 5656 560.4086
5657 4 -1.918019
5657 5654 -0.789478
5657 5657 5.223162
5657 5658 -2.116367
5657 5659 0.600702
5658 4 -0.437364
5658 5653 -0.045872
5658 5657 -1.513956
5658 5658 6.147743
5658 5659 -3.150552
5659 4 -2.878339
5659 5657 -0.05255
5659 5658 -2.66331
5659 5659 6.594199
5660 4 -2.530271
5660 5653 -0.789478
5660 5660 6.852849
5660 5661 -3.244169
5660 5662 0.711069
5661 4 -0.201371
5661 5654 -0.045872
5661 5660 -2.753105
5661 5661 7.588891
5661 5662 -3.588543
5662 4 -2.982111
5662 5660 0.291703
5662 5661 -3.267098
5662 5662 6.957505
5663 4 -1.169262
5663 5654 -1.216214
5663 5663 4.901141
5663 5664 -2.116367
5663 5665 0.600702
5664 4 -0.437364
5664 5653 -0.045872
5664 5663 -1.513956
5664 5664 6.147743
5664 5665 -3.150552
5665 4 -2.878339
5665 5663 -0.05255
5665 5664 -2.66331
5665 5665 6.594199
5666 4 -1.583274
5666 5653 -1.216214
5666 5666 6.332544
5666 5667 -3.244148
5666 5668 0.711092
5667 4 -0.201377
5667 5654 -0.045872
5667 5666 -2.75304
5667 5667 7.588865
5667 5668 -3.588576
5668 4 -2.982107
5668 5666 0.291671
5668 5667 -3.267086
5668 5668 6.957521
5669 4 -1.169262
5669 5654 -1.216214
5669 5669 4.901141
5669 5670 -2.116367
5669 5671 0.600702
5670 4 -0.437364
5670 5653 -0.045872
5670 5669 -1.513956
5670 5670 6.147743
5670 5671 -3.150552
5671 4 -2.878339
5671 5669 -0.05255
5671 5670 -2.66331
5671 5671 6.594199
5672 4 -1.583274
5672 5653 -1.216214
5672 5672 6.332544
5672 5673 -3.244148
5672 5674 0.711092
5673 4 -0.201377
5673 5654 -0.045872
5673 5672 -2.75304
5673 5673 7.588865
5673 5674 -3.588576
5674 4 -2.982107
5674 5672 0.291671
5674 5673 -3.267086
5674 5674 6.957521
5675 4 -1.169262
5675 5654 -1.216214
5675 5675 4.901141
5675 5676 -2.116367
5675 5677 0.600702
5676 4 -0.437364
5676 5653 -0.045872
5676 5675 -1.513956
5676 5676 6.147743
5676 5677 -3.150552
5677 4 -2.878339
5677 5675 -0.05255
5677 5676 -2.66331
5677 5677 6.594199
5678 4 -1.583274
5678 5653 -1.216214
5678 5678 6.332544
5678 5679 -3.244148
5678 5680 0.711092
5679 4 -0.201377
5679 5654 -0.045872
5679 5678 -2.75304
5679 5679 7.588865
5679 5680 -3.588576
5680 4 -2.982107
5680 5678 0.291671
5680 5679 -3.267086
5680 5680 6.957521
5681 4 -1.169262
5681 5654 -1.216214
5681 5681 4.901141
5681 5682 -2.116367
5681 5683 0.600702
5682 4 -0.437364
5682 5653 -0.045872
5682 5681 -1.513956
5682 5682 6.147743
5682 5683 -3.150552
5683 4 -2.878339
5683 5681 -0.05255
5683 5682 -2.66331
5683 5683 6.594199
5684 4 -1.583274
5684 5653 -1.216214
5684 5684 6.332544
5684 5685 -3.244148
5684 5686 0.711092
5685 4 -0.201377
5685 5654 -0.045872
5685 5684 -2.75304
5685 5685 7.588865
5685 5686 -3.588576
5686 4 -2.982107
5686 5684 0.291671
5686 5685 -3.267086
5686 5686 6.957521
5687 4 -1.169262
5687 5654 -1.216214
5687 5687 4.901141
5687 5688 -2.116367
5687 5689 0.600702
5688 4 -0.437364
5688 5653 -0.045872
5688 5687 -1.513956
5688 5688 6.147743
5688 5689 -3.150552
5689 4 -2.878339
5689 5687 -0.05255
5689 5688 -2.66331
5689 5689 6.594199
5690 4 -1.583274
5690 5653 -1.216214
5690 5690 6.332544
5690 5691 -3.244148
5690 5692 0.711092
5691 4 -0.201377
5691 5654 -0.045872
5691 5690 -2.75304
5691 5691 7.588865
5691 5692 -3.588576
5692 4 -2.982107
5692 5690 0.291671
5692 5691 -3.267086
5692 5692 6.957521
5693 4 -1.169262
5693 5654 -1.216214
5693 5693 4.901141
5693 5694 -2.116367
5693 5695 0.600702
5694 4 -0.437364
5694 5653 -0.045872
5694 5693 -1.513956
5694 5694 6.147743
5694 5695 -3.150552
5695 4 -2.878339
5695 5693 -0.05255
5695 5694 -2.66331
5695 5695 6.594199
5696 4 -1.583274
5696 5653 -1.216214
5696 5696 6.332544
5696 5697 -3.244148
5696 5698 0.711092
5697 4 -0.201377
5697 5654 -0.045872
5697 5696 -2.75304
5697 5697 7.588865
5697 5698 -3.588576
5698 4 -2.982107
5698 5696 0.291671
5698 5697 -3.267086
5698 5698 6.957521
5699 4 -1.169262
5699 5654 -1.216214
5699 5699 4.901141
5699 5700 -2.116367
5699 5701 0.600702
5700 4 -0.437364
5700 5653 -0.045872
5700 5699 -1.513956
5700 5700 6.147743
5700 5701 -3.150552
5701 4 -2.878339
5701 5699 -0.05255
5701 5700 -2.66331
5701 5701 6.594199
5702 4 -1.583274
5702 5653 -1.216214
5702 5702 6.332544
5702 5703 -3.244148
5702 5704 0.711092
5703 4 -0.201377
5703 5654 -0.045872
5703 5702 -2.75304
5703 5703 7.588865
5703 5704 -3.588576
5704 4 -2.982107
5704 5702 0.291671
5704 5703 -3.267086
5704 5704 6.957521
5705 4 -1.169262
5705 5654 -1.216214
5705 5705 4.901141
5705 5706 -2.116367
5705 5707 0.600702
5706 4 -0.437364
5706 5653 -0.045872
5706 5705 -1.513956
5706 5706 6.147743
5706 5707 -3.150552
5707 4 -2.878339
5707 5705 -0.05255
5707 5706 -2.66331
5707 5707 6.594199
5708 4 -1.583274
5708 5653 -1.216214
5708 5708 6.332544
5708 5709 -3.244148
5708 5710 0.711092
5709 4 -0.201377
5709 5654 -0.045872
5709 5708 -2.75304
5709 5709 7.588865
5709 5710 -3.588576
5710 4 -2.982107
5710 5708 0.291671
5710 5709 -3.267086
5710 5710 6.957521
5711 4 -1.169262
5711 5654 -1.216214
5711 5711 4.901141
5711 5712 -2.116367
5711 5713 0.600702
5712 4 -0.437364
5712 5653 -0.045872
5712 5711 -1.513956
5712 5712 6.147743
5712 5713 -3.150552
5713 4 -2.878339
5713 5711 -0.05255
5713 5712 -2.66331
5713 5713 6.594199
5714 4 -1.583274
5714 5653 -1.216214
5714 5714 6.332544
5714 5715 -3.244148
5714 5716 0.711092
5715 4 -0.201377
5715 5654 -0.045872
5715 5714 -2.75304
5715 5715 7.588865
5715 5716 -3.588576
5716 4 -2.982107
5716 5714 0.291671
5716 5715 -3.267086
5716 5716 6.957521
5717 4 -1.169262
5717 5654 -1.216214
5717 5717 4.901141
5717 5718 -2.116367
5717 5719 0.600702
5718 4 -0.437364
5718 5653 -0.045872
5718 5717 -1.513956
5718 5718 6.147743
5718 5719 -3.150552
5719 4 -2.878339
5719 5717 -0.05255
5719 5718 -2.66331
5719 5719 6.594199
5720 4 -1.583274
5720 5653 -1.216214
5720 5720 6.332544
5720 5721 -3.244148
5720 5722 0.711092
5721 4 -0.201377
5721 5654 -0.045872
5721 5720 -2.75304
5721 5721 7.588865
5721 5722 -3.588576
5722 4 -2.982107
5722 5720 0.291671
5722 5721 -3.267086
5722 5722 6.957521
5723 4 -1.169262
5723 5654 -1.216214
5723 5723 4.901141
5723 5724 -2.116367
5723 5725 0.600702
5724 4 -0.437364
5724 5653 -0.045872
5724 5723 -1.513956
5724 5724 6.147743
5724 5725 -3.150552
5725 4 -2.878339
5725 5723 -0.05255
5725 5724 -2.66331
5725 5725 6.594199
5726 4 -1.583274
5726 5653 -1.216214
5726 5726 6.332544
5726 5727 -3.244148
5726 5728 0.711092
5727 4 -0.201377
5727 5654 -0.045872
5727 5726 -2.75304
5727 5727 7.588865
5727 5728 -3.588576
5728 4 -2.982107
5728 5726 0.291671
5728 5727 -3.267086
5728 5728 6.957521
5729 4 -1.169262
5729 5654 -1.216214
5729 5729 4.901141
5729 5730 -2.116367
5729 5731 0.600702
5730 4 -0.437364
5730 5653 -0.045872
5730 5729 -1.513956
5730 5730 6.147743
5730 5731 -3.150552
5731 4 -2.878339
5731 5729 -0.05255
5731 5730 -2.66331
5731 5731 6.594199
5732 4 -1.583274
5732 5653 -1.216214
5732 5732 6.332544
5732 5733 -3.244148
5732 5734 0.711092
5733 4 -0.201377
5733 5654 -0.045872
5733 5732 -2.75304
5733 5733 7.588865
5733 5734 -3.588576
5734 4 -2.982107
5734 5732 0.291671
5734 5733 -3.267086
5734 5734 6.957521
5735 4 -1.169262
5735 5654 -1.216214
5735 5735 4.901141
5735 5736 -2.116367
5735 5737 0.600702
5736 4 -0.437364
5736 5653 -0.045872
5736 5735 -1.513956
5736 5736 6.147743
5736 5737 -3.150552
5737 4 -2.878339
5737 5735 -0.05255
5737 5736 -2.66331
5737 5737 6.594199
5738 4 -1.583274
5738 5653 -1.216214
5738 5738 6.332544
5738 5739 -3.244148
5738 5740 0.711092
5739 4 -0.201377
5739 5654 -0.045872
5739 5738 -2.75304
5739 5739 7.588865
5739 5740 -3.588576
5740 4 -2.982107
5740 5738 0.291671
5740 5739 -3.267086
5740 5740 6.957521
5741 4 -1.169261
5741 5654 -1.216214
5741 5741 4.901141
5741 5742 -2.116362
5741 5743 0.600696
5742 4 -0.437365
5742 5653 -0.045872
5742 5741 -1.513956
5742 5742 6.147733
5742 5743 -3.150539
5743 4 -3.5154
5743 5741 -0.052549
5743 5742 -2.663302
5743 5743 7.231252
5744 4 -1.583275
5744 5653 -1.216214
5744 5744 6.332566
5744 5745 -3.244159
5744 5746 0.711083
5745 4 -0.201371
5745 5654 -0.045872
5745 5744 -2.753072
5745 5745 7.588879
5745 5746 -3.588565
5746 4 -3.619079
5746 5744 0.291686
5746 5745 -3.267093
5746 5746 7.594485
5747 1 -17.2055
5747 2 -19.5265
5747 4 -5.6965
5747 6 -0.0405
5747 8 -2.847
5747 5654 -1.522
5747 5747 68.59008
5747 5748 -2.297298
5747 5755 -2.297298
5747 5761 -2.297298
5747 5767 -2.297298
5747 6159 -2.837837
5747 6165 -2.837837
5747 6171 -2.837837
5747 6177 -2.837837
5747 6184 -0.019231
5747 6190 -0.019231
5747 6196 -0.019231
5747 6202 -0.019231
5747 6208 -0.019231
5747 6214 -0.019231
5747 6220 -0.019231
5747 6226 -0.019231
5747 6232 -0.019231
5747 6238 -0.019231
5747 6244 -0.019231
5748 4 -2.844275
5748 5747 -2.297298
5748 5748 11.285419
5748 5749 -6.628384
5748 5750 1.484538
5749 2 -0.026455
5749 4 -0.451189
5749 5748 -5.705007
5749 5749 14.389677
5749 5750 -7.207026
5750 4 -6.635156
5750 5748 0.758439
5750 5749 -6.671079
5750 5750 13.547796
5751 1 -17.185
5751 2 -19.5575
5751 4 -5.6545
5751 6 -0.0345
5751 7 -2.8445
5751 5653 -1.522
5751 5751 68.55008
5751 5752 -2.297298
5751 5758 -2.297298
5751 5764 -2.297298
5751 5770 -2.297298
5751 6162 -2.837837
5751 6168 -2.837837
5751 6174 -2.837837
5751 6180 -2.837837
5751 6187 -0.019231
5751 6193 -0.019231
5751 6199 -0.019231
5751 6205 -0.019231
5751 6211 -0.019231
5751 6217 -0.019231
5751 6223 -0.019231
5751 6229 -0.019231
5751 6235 -0.019231
5751 6241 -0.019231
5751 6247 -0.019231
5752 4 -2.268918
5752 5751 -2.297298
5752 5752 8.994964
5752 5753 -5.406784
5752 5754 1.978036
5753 2 -0.026455
5753 4 -0.621351
5753 5752 -3.555196
5753 5753 13.028361
5753 5754 -7.825359
5754 4 -6.541141
5754 5752 -0.07847
5754 5753 -6.166926
5754 5754 13.786536
5755 4 -2.84427
5755 5747 -2.297298
5755 5755 11.285365
5755 5756 -6.628358
5755 5757 1.484561
5756 2 -0.026455
5756 4 -0.451204
5756 5755 -5.704926
5756 5756 14.389644
5756 5757 -7.207059
5757 4 -5.528044
5757 5755 0.7584
5757 5756 -6.671062
5757 5757 12.440705
5758 4 -2.268928
5758 5751 -2.297298
5758 5758 8.99496
5758 5759 -5.406776
5758 5760 1.978041
5759 2 -0.026455
5759 4 -0.621349
5759 5758 -3.555196
5759 5759 13.028364
5759 5760 -7.825364
5760 4 -5.434228
5760 5758 -0.078467
5760 5759 -6.166924
5760 5760 12.679619
5761 4 -2.84427
5761 5747 -2.297298
5761 5761 11.285365
5761 5762 -6.628358
5761 5763 1.484561
5762 2 -0.026455
5762 4 -0.451204
5762 5761 -5.704926
5762 5762 14.389644
5762 5763 -7.207059
5763 4 -5.528044
5763 5761 0.7584
5763 5762 -6.671062
5763 5763 12.440705
5764 4 -2.268928
5764 5751 -2.297298
5764 5764 8.99496
5764 5765 -5.406776
5764 5766 1.978041
5765 2 -0.026455
5765 4 -0.621349
5765 5764 -3.555196
5765 5765 13.028364
5765 5766 -7.825364
5766 4 -5.434228
5766 5764 -0.078467
5766 5765 -6.166924
5766 5766 12.679619
5767 4 -2.844275
5767 5747 -2.297298
5767 5767 11.285419
5767 5768 -6.628384
5767 5769 1.484538
5768 2 -0.026455
5768 4 -0.451189
5768 5767 -5.705007
5768 5768 14.389677
5768 5769 -7.207026
5769 4 -6.635156
5769 5767 0.758439
5769 5768 -6.671079
5769 5769 13.547796
5770 4 -2.268918
5770 5751 -2.297298
5770 5770 8.994964
5770 5771 -5.406784
5770 5772 1.978036
5771 2 -0.026455
5771 4 -0.621351
5771 5770 -3.555196
5771 5771 13.028361
5771 5772 -7.825359
5772 4 -6.541141
5772 5770 -0.07847
5772 5771 -6.166926
5772 5772 13.786536
5773 4 -4.878087
5773 8 -1.754386
5773 5773 13.086201
5773 5774 -7.466468
5773 5775 2.012739
5774 2 -0.022523
5774 4 -0.590293
5774 5773 -5.881251
5774 5774 16.341718
5774 5775 -8.847651
5775 4 -6.426233
5775 5773 0.509218
5775 5774 -7.669092
5775 5775 14.586107
5776 4 -4.57123
5776 7 -1.754386
5776 5776 11.984866
5776 5777 -6.896764
5776 5778 2.237514
5777 2 -0.022523
5777 4 -0.663606
5777 5776 -4.902256
5777 5777 15.70495
5777 5778 -9.116565
5778 4 -6.388405
5778 5776 0.134884
5778 5777 -7.43026
5778 5778 14.683781
5779 4 -3.059831
5779 8 -2.702703
5779 5779 12.215937
5779 5780 -7.46626
5779 5781 2.012856
5780 2 -0.022523
5780 4 -0.590324
5780 5779 -5.880828
5780 5780 16.341476
5780 5781 -8.847801
5781 4 -6.426213
5781 5779 0.50904
5781 5780 -7.668992
5781 5781 14.586165
5782 4 -2.848624
5782 7 -2.702703
5782 5782 11.210236
5782 5783 -6.896495
5782 5784 2.237586
5783 2 -0.022523
5783 4 -0.663638
5783 5782 -4.901854
5783 5783 15.70466
5783 5784 -9.116645
5784 4 -6.38839
5784 5782 0.134745
5784 5783 -7.430161
5784 5784 14.683806
5785 4 -3.059831
5785 8 -2.702703
5785 5785 12.215937
5785 5786 -7.46626
5785 5787 2.012856
5786 2 -0.022523
5786 4 -0.590324
5786 5785 -5.880828
5786 5786 16.341476
5786 5787 -8.847801
5787 4 -6.426213
5787 5785 0.50904
5787 5786 -7.668992
5787 5787 14.586165
5788 4 -2.848624
5788 7 -2.702703
5788 5788 11.210236
5788 5789 -6.896495
5788 5790 2.237586
5789 2 -0.022523
5789 4 -0.663638
5789 5788 -4.901854
5789 5789 15.70466
5789 5790 -9.116645
5790 4 -6.38839
5790 5788 0.134745
5790 5789 -7.430161
5790 5790 14.683806
5791 4 -3.059831
5791 8 -2.702703
5791 5791 12.215937
5791 5792 -7.46626
5791 5793 2.012856
5792 2 -0.022523
5792 4 -0.590324
5792 5791 -5.880828
5792 5792 16.341476
5792 5793 -8.847801
5793 4 -6.426213
5793 5791 0.50904
5793 5792 -7.668992
5793 5793 14.586165
5794 4 -2.848624
5794 7 -2.702703
5794 5794 11.210236
5794 5795 -6.896495
5794 5796 2.237586
5795 2 -0.022523
5795 4 -0.663638
5795 5794 -4.901854
5795 5795 15.70466
5795 5796 -9.116645
5796 4 -6.38839
5796 5794 0.134745
5796 5795 -7.430161
5796 5796 14.683806
5797 4 -3.059831
5797 8 -2.702703
5797 5797 12.215937
5797 5798 -7.46626
5797 5799 2.012856
5798 2 -0.022523
5798 4 -0.590324
5798 5797 -5.880828
5798 5798 16.341476
5798 5799 -8.847801
5799 4 -6.426213
5799 5797 0.50904
5799 5798 -7.668992
5799 5799 14.586165
5800 4 -2.848624
5800 7 -2.702703
5800 5800 11.210236
5800 5801 -6.896495
5800 5802 2.237586
5801 2 -0.022523
5801 4 -0.663638
5801 5800 -4.901854
5801 5801 15.70466
5801 5802 -9.116645
5802 4 -6.38839
5802 5800 0.134745
5802 5801 -7.430161
5802 5802 14.683806
5803 4 -3.059831
5803 8 -2.702703
5803 5803 12.215937
5803 5804 -7.46626
5803 5805 2.012856
5804 2 -0.022523
5804 4 -0.590324
5804 5803 -5.880828
5804 5804 16.341476
5804 5805 -8.847801
5805 4 -6.426213
5805 5803 0.50904
5805 5804 -7.668992
5805 5805 14.586165
5806 4 -2.848624
5806 7 -2.702703
5806 5806 11.210236
5806 5807 -6.896495
5806 5808 2.237586
5807 2 -0.022523
5807 4 -0.663638
5807 5806 -4.901854
5807 5807 15.70466
5807 5808 -9.116645
5808 4 -6.38839
5808 5806 0.134745
5808 5807 -7.430161
5808 5808 14.683806
5809 4 -3.059831
5809 8 -2.702703
5809 5809 12.215937
5809 5810 -7.46626
5809 5811 2.012856
5810 2 -0.022523
5810 4 -0.590324
5810 5809 -5.880828
5810 5810 16.341476
5810 5811 -8.847801
5811 4 -6.426213
5811 5809 0.50904
5811 5810 -7.668992
5811 5811 14.586165
5812 4 -2.848624
5812 7 -2.702703
5812 5812 11.210236
5812 5813 -6.896495
5812 5814 2.237586
5813 2 -0.022523
5813 4 -0.663638
5813 5812 -4.901854
5813 5813 15.70466
5813 5814 -9.116645
5814 4 -6.38839
5814 5812 0.134745
5814 5813 -7.430161
5814 5814 14.683806
5815 4 -3.059831
5815 8 -2.702703
5815 5815 12.215937
5815 5816 -7.46626
5815 5817 2.012856
5816 2 -0.022523
5816 4 -0.590324
5816 5815 -5.880828
5816 5816 16.341476
5816 5817 -8.847801
5817 4 -6.426213
5817 5815 0.50904
5817 5816 -7.668992
5817 5817 14.586165
5818 4 -2.848624
5818 7 -2.702703
5818 5818 11.210236
5818 5819 -6.896495
5818 5820 2.237586
5819 2 -0.022523
5819 4 -0.663638
5819 5818 -4.901854
5819 5819 15.70466
5819 5820 -9.116645
5820 4 -6.38839
5820 5818 0.134745
5820 5819 -7.430161
5820 5820 14.683806
5821 4 -3.059831
5821 8 -2.702703
5821 5821 12.215937
5821 5822 -7.46626
5821 5823 2.012856
5822 2 -0.022523
5822 4 -0.590324
5822 5821 -5.880828
5822 5822 16.341476
5822 5823 -8.847801
5823 4 -6.426213
5823 5821 0.50904
5823 5822 -7.668992
5823 5823 14.586165
5824 4 -2.848624
5824 7 -2.702703
5824 5824 11.210236
5824 5825 -6.896495
5824 5826 2.237586
5825 2 -0.022523
5825 4 -0.663638
5825 5824 -4.901854
5825 5825 15.70466
5825 5826 -9.116645
5826 4 -6.38839
5826 5824 0.134745
5826 5825 -7.430161
5826 5826 14.683806
5827 4 -3.059831
5827 8 -2.702703
5827 5827 12.215937
5827 5828 -7.46626
5827 5829 2.012856
5828 2 -0.022523
5828 4 -0.590324
5828 5827 -5.880828
5828 5828 16.341476
5828 5829 -8.847801
5829 4 -6.426213
5829 5827 0.50904
5829 5828 -7.668992
5829 5829 14.586165
5830 4 -2.848624
5830 7 -2.702703
5830 5830 11.210236
5830 5831 -6.896495
5830 5832 2.237586
5831 2 -0.022523
5831 4 -0.663638
5831 5830 -4.901854
5831 5831 15.70466
5831 5832 -9.116645
5832 4 -6.38839
5832 5830 0.134745
5832 5831 -7.430161
5832 5832 14.683806
5833 4 -3.059839
5833 8 -2.702703
5833 5833 12.21604
5833 5834 -7.46633
5833 5835 2.012832
5834 2 -0.022523
5834 4 -0.590302
5834 5833 -5.880959
5834 5834 16.341554
5834 5835 -8.84777
5835 4 -7.709534
5835 5833 0.509092
5835 5834 -7.669027
5835 5835 15.869468
5836 4 -2.848626
5836 7 -2.702703
5836 5836 11.210315
5836 5837 -6.896562
5836 5838 2.237576
5837 2 -0.022523
5837 4 -0.663625
5837 5836 -4.901942
5837 5837 15.704725
5837 5838 -9.116635
5838 4 -7.671637
5838 5836 0.134773
5838 5837 -7.430186
5838 5838 15.967051
5839 1 -15.837
5839 2 -74.9745
5839 4 -1.555
5839 6 -11.935
5839 5653 -0.4245
5839 5654 -2.832
5839 5839 296.098563
5839 5840 -4.054065
5839 5843 -0.03
5839 5847 -4.054065
5839 5853 -4.054065
5839 5859 -4.054065
5839 5865 -4.054065
5839 5871 -4.054065
5839 5877 -4.054065
5839 5883 -4.054065
5839 5889 -4.054065
5839 5895 -4.054065
5839 5901 -4.054065
5839 5907 -4.054065
5839 5913 -4.054065
5839 5919 -4.054065
5839 5925 -4.054065
5839 5931 -4.054065
5839 5937 -4.054065
5839 5943 -4.054065
5839 5949 -4.054065
5839 5955 -4.054065
5839 5961 -4.054065
5839 5967 -4.054065
5839 5973 -4.054065
5839 5979 -4.054065
5839 5985 -4.054065
5839 5991 -4.054065
5839 5997 -4.054065
5839 6003 -4.054065
5839 6009 -4.054065
5839 6015 -4.054065
5839 6021 -4.054065
5839 6027 -4.054065
5839 6033 -4.054065
5839 6039 -4.054065
5839 6045 -4.054065
5839 6051 -4.054065
5839 6057 -4.054065
5839 6063 -4.054065
5839 6069 -4.054065
5839 6075 -4.054065
5839 6081 -4.054065
5839 6087 -4.054065
5839 6093 -4.054065
5839 6099 -4.054065
5839 6105 -2.674898
5839 6113 -0.802472
5839 6119 -1.216214
5839 6125 -1.216214
5839 6131 -1.216214
5839 6137 -1.216214
5839 6143 -0.789478
5840 2 -4.545622
5840 5839 -4.054065
5840 5840 18.639177
5840 5841 -11.207633
5840 5842 2.168142
5841 2 -0.551504
5841 6 -0.013755
5841 5840 -10.29827
5841 5841 23.506198
5841 5842 -11.642669
5842 2 -10.147682
5842 5840 1.342723
5842 5841 -11.21266
5842 5842 21.017619
5843 1 -15.7255
5843 2 -75.113
5843 4 -1.5575
5843 6 -11.9355
5843 5653 -2.8285
5843 5654 -0.4245
5843 5839 -0.03
5843 5843 296.125063
5843 5844 -4.054065
5843 5850 -4.054065
5843 5856 -4.054065
5843 5862 -4.054065
5843 5868 -4.054065
5843 5874 -4.054065
5843 5880 -4.054065
5843 5886 -4.054065
5843 5892 -4.054065
5843 5898 -4.054065
5843 5904 -4.054065
5843 5910 -4.054065
5843 5916 -4.054065
5843 5922 -4.054065
5843 5928 -4.054065
5843 5934 -4.054065
5843 5940 -4.054065
5843 5946 -4.054065
5843 5952 -4.054065
5843 5958 -4.054065
5843 5964 -4.054065
5843 5970 -4.054065
5843 5976 -4.054065
5843 5982 -4.054065
5843 5988 -4.054065
5843 5994 -4.054065
5843 6000 -4.054065
5843 6006 -4.054065
5843 6012 -4.054065
5843 6018 -4.054065
5843 6024 -4.054065
5843 6030 -4.054065
5843 6036 -4.054065
5843 6042 -4.054065
5843 6048 -4.054065
5843 6054 -4.054065
5843 6060 -4.054065
5843 6066 -4.054065
5843 6072 -4.054065
5843 6078 -4.054065
5843 6084 -4.054065
5843 6090 -4.054065
5843 6096 -4.054065
5843 6102 -4.054065
5843 6108 -2.674898
5843 6116 -0.802472
5843 6122 -1.216214
5843 6128 -1.216214
5843 6134 -1.216214
5843 6140 -1.216214
5843 6146 -0.789478
5844 2 -4.570189
5844 5843 -4.054065
5844 5844 18.709935
5844 5845 -11.217641
5844 5846 2.131961
5845 2 -0.549751
5845 6 -0.013755
5845 5844 -10.378291
5845 5845 23.520257
5845 5846 -11.57846
5846 2 -10.148628
5846 5844 1.380763
5846 5845 -11.217653
5846 5846 20.985518
5847 2 -4.545622
5847 5839 -4.054065
5847 5847 18.639165
5847 5848 -11.207629
5847 5849 2.168151
5848 2 -0.551505
5848 6 -0.013755
5848 5847 -10.298249
5848 5848 23.506194
5848 5849 -11.642685
5849 2 -8.623392
5849 5847 1.342713
5849 5848 -11.212658
5849 5849 19.493337
5850 2 -4.570189
5850 5843 -4.054065
5850 5850 18.709935
5850 5851 -11.217641
5850 5852 2.131961
5851 2 -0.549751
5851 6 -0.013755
5851 5850 -10.37829
5851 5851 23.520256
5851 5852 -11.57846
5852 2 -8.624314
5852 5850 1.380763
5852 5851 -11.217653
5852 5852 19.461205
5853 2 -4.545622
5853 5839 -4.054065
5853 5853 18.639165
5853 5854 -11.207629
5853 5855 2.168151
5854 2 -0.551505
5854 6 -0.013755
5854 5853 -10.298249
5854 5854 23.506194
5854 5855 -11.642685
5855 2 -8.623392
5855 5853 1.342713
5855 5854 -11.212658
5855 5855 19.493337
5856 2 -4.570189
5856 5843 -4.054065
5856 5856 18.709935
5856 5857 -11.217641
5856 5858 2.131961
5857 2 -0.549751
5857 6 -0.013755
5857 5856 -10.37829
5857 5857 23.520256
5857 5858 -11.57846
5858 2 -8.624314
5858 5856 1.380763
5858 5857 -11.217653
5858 5858 19.461205
5859 2 -4.545622
5859 5839 -4.054065
5859 5859 18.639165
5859 5860 -11.207629
5859 5861 2.168151
5860 2 -0.551505
5860 6 -0.013755
5860 5859 -10.298249
5860 5860 23.506194
5860 5861 -11.642685
5861 2 -8.623392
5861 5859 1.342713
5861 5860 -11.212658
5861 5861 19.493337
5862 2 -4.570189
5862 5843 -4.054065
5862 5862 18.709935
5862 5863 -11.217641
5862 5864 2.131961
5863 2 -0.549751
5863 6 -0.013755
5863 5862 -10.37829
5863 5863 23.520256
5863 5864 -11.57846
5864 2 -8.624314
5864 5862 1.380763
5864 5863 -11.217653
5864 5864 19.461205
5865 2 -4.545622
5865 5839 -4.054065
5865 5865 18.639165
5865 5866 -11.207629
5865 5867 2.168151
5866 2 -0.551505
5866 6 -0.013755
5866 5865 -10.298249
5866 5866 23.506194
5866 5867 -11.642685
5867 2 -8.623392
5867 5865 1.342713
5867 5866 -11.212658
5867 5867 19.493337
5868 2 -4.570189
5868 5843 -4.054065
5868 5868 18.709935
5868 5869 -11.217641
5868 5870 2.131961
5869 2 -0.549751
5869 6 -0.013755
5869 5868 -10.37829
5869 5869 23.520256
5869 5870 -11.57846
5870 2 -8.624314
5870 5868 1.380763
5870 5869 -11.217653
5870 5870 19.461205
5871 2 -4.545622
5871 5839 -4.054065
5871 5871 18.639165
5871 5872 -11.207629
5871 5873 2.168151
5872 2 -0.551505
5872 6 -0.013755
5872 5871 -10.298249
5872 5872 23.506194
5872 5873 -11.642685
5873 2 -8.623392
5873 5871 1.342713
5873 5872 -11.212658
5873 5873 19.493337
5874 2 -4.570189
5874 5843 -4.054065
5874 5874 18.709935
5874 5875 -11.217641
5874 5876 2.131961
5875 2 -0.549751
5875 6 -0.013755
5875 5874 -10.37829
5875 5875 23.520256
5875 5876 -11.57846
5876 2 -8.624314
5876 5874 1.380763
5876 5875 -11.217653
5876 5876 19.461205
5877 2 -4.545622
5877 5839 -4.054065
5877 5877 18.639165
5877 5878 -11.207629
5877 5879 2.168151
5878 2 -0.551505
5878 6 -0.013755
5878 5877 -10.298249
5878 5878 23.506194
5878 5879 -11.642685
5879 2 -8.623392
5879 5877 1.342713
5879 5878 -11.212658
5879 5879 19.493337
5880 2 -4.570189
5880 5843 -4.054065
5880 5880 18.709935
5880 5881 -11.217641
5880 5882 2.131961
5881 2 -0.549751
5881 6 -0.013755
5881 5880 -10.37829
5881 5881 23.520256
5881 5882 -11.57846
5882 2 -8.624314
5882 5880 1.380763
5882 5881 -11.217653
5882 5882 19.461205
5883 2 -4.545622
5883 5839 -4.054065
5883 5883 18.639165
5883 5884 -11.207629
5883 5885 2.168151
5884 2 -0.551505
5884 6 -0.013755
5884 5883 -10.298249
5884 5884 23.506194
5884 5885 -11.642685
5885 2 -8.623392
5885 5883 1.342713
5885 5884 -11.212658
5885 5885 19.493337
5886 2 -4.570189
5886 5843 -4.054065
5886 5886 18.709935
5886 5887 -11.217641
5886 5888 2.131961
5887 2 -0.549751
5887 6 -0.013755
5887 5886 -10.37829
5887 5887 23.520256
5887 5888 -11.57846
5888 2 -8.624314
5888 5886 1.380763
5888 5887 -11.217653
5888 5888 19.461205
5889 2 -4.545622
5889 5839 -4.054065
5889 5889 18.639165
5889 5890 -11.207629
5889 5891 2.168151
5890 2 -0.551505
5890 6 -0.013755
5890 5889 -10.298249
5890 5890 23.506194
5890 5891 -11.642685
5891 2 -8.623392
5891 5889 1.342713
5891 5890 -11.212658
5891 5891 19.493337
5892 2 -4.570189
5892 5843 -4.054065
5892 5892 18.709935
5892 5893 -11.217641
5892 5894 2.131961
5893 2 -0.549751
5893 6 -0.013755
5893 5892 -10.37829
5893 5893 23.520256
5893 5894 -11.57846
5894 2 -8.624314
5894 5892 1.380763
5894 5893 -11.217653
5894 5894 19.461205
5895 2 -4.545622
5895 5839 -4.054065
5895 5895 18.639165
5895 5896 -11.207629
5895 5897 2.168151
5896 2 -0.551505
5896 6 -0.013755
5896 5895 -10.298249
5896 5896 23.506194
5896 5897 -11.642685
5897 2 -8.623392
5897 5895 1.342713
5897 5896 -11.212658
5897 5897 19.493337
5898 2 -4.570189
5898 5843 -4.054065
5898 5898 18.709935
5898 5899 -11.217641
5898 5900 2.131961
5899 2 -0.549751
5899 6 -0.013755
5899 5898 -10.37829
5899 5899 23.520256
5899 5900 -11.57846
5900 2 -8.624314
5900 5898 1.380763
5900 5899 -11.217653
5900 5900 19.461205
5901 2 -4.545622
5901 5839 -4.054065
5901 5901 18.639165
5901 5902 -11.207629
5901 5903 2.168151
5902 2 -0.551505
5902 6 -0.013755
5902 5901 -10.298249
5902 5902 23.506194
5902 5903 -11.642685
5903 2 -8.623392
5903 5901 1.342713
5903 5902 -11.212658
5903 5903 19.493337
5904 2 -4.570189
5904 5843 -4.054065
5904 5904 18.709935
5904 5905 -11.217641
5904 5906 2.131961
5905 2 -0.549751
5905 6 -0.013755
5905 5904 -10.37829
5905 5905 23.520256
5905 5906 -11.57846
5906 2 -8.624314
5906 5904 1.380763
5906 5905 -11.217653
5906 5906 19.461205
5907 2 -4.545622
5907 5839 -4.054065
5907 5907 18.639165
5907 5908 -11.207629
5907 5909 2.168151
5908 2 -0.551505
5908 6 -0.013755
5908 5907 -10.298249
5908 5908 23.506194
5908 5909 -11.642685
5909 2 -8.623392
5909 5907 1.342713
5909 5908 -11.212658
5909 5909 19.493337
5910 2 -4.570189
5910 5843 -4.054065
5910 5910 18.709935
5910 5911 -11.217641
5910 5912 2.131961
5911 2 -0.549751
5911 6 -0.013755
5911 5910 -10.37829
5911 5911 23.520256
5911 5912 -11.57846
5912 2 -8.624314
5912 5910 1.380763
5912 5911 -11.217653
5912 5912 19.461205
5913 2 -4.545622
5913 5839 -4.054065
5913 5913 18.639165
5913 5914 -11.207629
5913 5915 2.168151
5914 2 -0.551505
5914 6 -0.013755
5914 5913 -10.298249
5914 5914 23.506194
5914 5915 -11.642685
5915 2 -8.623392
5915 5913 1.342713
5915 5914 -11.212658
5915 5915 19.493337
5916 2 -4.570189
5916 5843 -4.054065
5916 5916 18.709935
5916 5917 -11.217641
5916 5918 2.131961
5917 2 -0.549751
5917 6 -0.013755
5917 5916 -10.37829
5917 5917 23.520256
5917 5918 -11.57846
5918 2 -8.624314
5918 5916 1.380763
5918 5917 -11.217653
5918 5918 19.461205
5919 2 -4.545622
5919 5839 -4.054065
5919 5919 18.639165
5919 5920 -11.207629
5919 5921 2.168151
5920 2 -0.551505
5920 6 -0.013755
5920 5919 -10.298249
5920 5920 23.506194
5920 5921 -11.642685
5921 2 -8.623392
5921 5919 1.342713
5921 5920 -11.212658
5921 5921 19.493337
5922 2 -4.570189
5922 5843 -4.054065
5922 5922 18.709935
5922 5923 -11.217641
5922 5924 2.131961
5923 2 -0.549751
5923 6 -0.013755
5923 5922 -10.37829
5923 5923 23.520256
5923 5924 -11.57846
5924 2 -8.624314
5924 5922 1.380763
5924 5923 -11.217653
5924 5924 19.461205
5925 2 -4.545622
5925 5839 -4.054065
5925 5925 18.639165
5925 5926 -11.207629
5925 5927 2.168151
5926 2 -0.551505
5926 6 -0.013755
5926 5925 -10.298249
5926 5926 23.506194
5926 5927 -11.642685
5927 2 -8.623392
5927 5925 1.342713
5927 5926 -11.212658
5927 5927 19.493337
5928 2 -4.570189
5928 5843 -4.054065
5928 5928 18.709935
5928 5929 -11.217641
5928 5930 2.131961
5929 2 -0.549751
5929 6 -0.013755
5929 5928 -10.37829
5929 5929 23.520256
5929 5930 -11.57846
5930 2 -8.624314
5930 5928 1.380763
5930 5929 -11.217653
5930 5930 19.461205
5931 2 -4.545622
5931 5839 -4.054065
5931 5931 18.639165
5931 5932 -11.207629
5931 5933 2.168151
5932 2 -0.551505
5932 6 -0.013755
5932 5931 -10.298249
5932 5932 23.506194
5932 5933 -11.642685
5933 2 -8.623392
5933 5931 1.342713
5933 5932 -11.212658
5933 5933 19.493337
5934 2 -4.570189
5934 5843 -4.054065
5934 5934 18.709935
5934 5935 -11.217641
5934 5936 2.131961
5935 2 -0.549751
5935 6 -0.013755
5935 5934 -10.37829
5935 5935 23.520256
5935 5936 -11.57846
5936 2 -8.624314
5936 5934 1.380763
5936 5935 -11.217653
5936 5936 19.461205
5937 2 -4.545622
5937 5839 -4.054065
5937 5937 18.639165
5937 5938 -11.207629
5937 5939 2.168151
5938 2 -0.551505
5938 6 -0.013755
5938 5937 -10.298249
5938 5938 23.506194
5938 5939 -11.642685
5939 2 -8.623392
5939 5937 1.342713
5939 5938 -11.212658
5939 5939 19.493337
5940 2 -4.570189
5940 5843 -4.054065
5940 5940 18.709935
5940 5941 -11.217641
5940 5942 2.131961
5941 2 -0.549751
5941 6 -0.013755
5941 5940 -10.37829
5941 5941 23.520256
5941 5942 -11.57846
5942 2 -8.624314
5942 5940 1.380763
5942 5941 -11.217653
5942 5942 19.461205
5943 2 -4.545622
5943 5839 -4.054065
5943 5943 18.639165
5943 5944 -11.207629
5943 5945 2.168151
5944 2 -0.551505
5944 6 -0.013755
5944 5943 -10.298249
5944 5944 23.506194
5944 5945 -11.642685
5945 2 -8.623392
5945 5943 1.342713
5945 5944 -11.212658
5945 5945 19.493337
5946 2 -4.570189
5946 5843 -4.054065
5946 5946 18.709935
5946 5947 -11.217641
5946 5948 2.131961
5947 2 -0.549751
5947 6 -0.013755
5947 5946 -10.37829
5947 5947 23.520256
5947 5948 -11.57846
5948 2 -8.624314
5948 5946 1.380763
5948 5947 -11.217653
5948 5948 19.461205
5949 2 -4.545622
5949 5839 -4.054065
5949 5949 18.639165
5949 5950 -11.207629
5949 5951 2.168151
5950 2 -0.551505
5950 6 -0.013755
5950 5949 -10.298249
5950 5950 23.506194
5950 5951 -11.642685
5951 2 -8.623392
5951 5949 1.342713
5951 5950 -11.212658
5951 5951 19.493337
5952 2 -4.570189
5952 5843 -4.054065
5952 5952 18.709935
5952 5953 -11.217641
5952 5954 2.131961
5953 2 -0.549751
5953 6 -0.013755
5953 5952 -10.37829
5953 5953 23.520256
5953 5954 -11.57846
5954 2 -8.624314
5954 5952 1.380763
5954 5953 -11.217653
5954 5954 19.461205
5955 2 -4.545622
5955 5839 -4.054065
5955 5955 18.639165
5955 5956 -11.207629
5955 5957 2.168151
5956 2 -0.551505
5956 6 -0.013755
5956 5955 -10.298249
5956 5956 23.506194
5956 5957 -11.642685
5957 2 -8.623392
5957 5955 1.342713
5957 5956 -11.212658
5957 5957 19.493337
5958 2 -4.570189
5958 5843 -4.054065
5958 5958 18.709935
5958 5959 -11.217641
5958 5960 2.131961
5959 2 -0.549751
5959 6 -0.013755
5959 5958 -10.37829
5959 5959 23.520256
5959 5960 -11.57846
5960 2 -8.624314
5960 5958 1.380763
5960 5959 -11.217653
5960 5960 19.461205
5961 2 -4.545622
5961 5839 -4.054065
5961 5961 18.639165
5961 5962 -11.207629
5961 5963 2.168151
5962 2 -0.551505
5962 6 -0.013755
5962 5961 -10.298249
5962 5962 23.506194
5962 5963 -11.642685
5963 2 -8.623392
5963 5961 1.342713
5963 5962 -11.212658
5963 5963 19.493337
5964 2 -4.570189
5964 5843 -4.054065
5964 5964 18.709935
5964 5965 -11.217641
5964 5966 2.131961
5965 2 -0.549751
5965 6 -0.013755
5965 5964 -10.37829
5965 5965 23.520256
5965 5966 -11.57846
5966 2 -8.624314
5966 5964 1.380763
5966 5965 -11.217653
5966 5966 19.461205
5967 2 -4.545622
5967 5839 -4.054065
5967 5967 18.639165
5967 5968 -11.207629
5967 5969 2.168151
5968 2 -0.551505
5968 6 -0.013755
5968 5967 -10.298249
5968 5968 23.506194
5968 5969 -11.642685
5969 2 -8.623392
5969 5967 1.342713
5969 5968 -11.212658
5969 5969 19.493337
5970 2 -4.570189
5970 5843 -4.054065
5970 5970 18.709935
5970 5971 -11.217641
5970 5972 2.131961
5971 2 -0.549751
5971 6 -0.013755
5971 5970 -10.37829
5971 5971 23.520256
5971 5972 -11.57846
5972 2 -8.624314
5972 5970 1.380763
5972 5971 -11.217653
5972 5972 19.461205
5973 2 -4.545622
5973 5839 -4.054065
5973 5973 18.639165
5973 5974 -11.207629
5973 5975 2.168151
5974 2 -0.551505
5974 6 -0.013755
5974 5973 -10.298249
5974 5974 23.506194
5974 5975 -11.642685
5975 2 -8.623392
5975 5973 1.342713
5975 5974 -11.212658
5975 5975 19.493337
5976 2 -4.570189
5976 5843 -4.054065
5976 5976 18.709935
5976 5977 -11.217641
5976 5978 2.131961
5977 2 -0.549751
5977 6 -0.013755
5977 5976 -10.37829
5977 5977 23.520256
5977 5978 -11.57846
5978 2 -8.624314
5978 5976 1.380763
5978 5977 -11.217653
5978 5978 19.461205
5979 2 -4.545622
5979 5839 -4.054065
5979 5979 18.639165
5979 5980 -11.207629
5979 5981 2.168151
5980 2 -0.551505
5980 6 -0.013755
5980 5979 -10.298249
5980 5980 23.506194
5980 5981 -11.642685
5981 2 -8.623392
5981 5979 1.342713
5981 5980 -11.212658
5981 5981 19.493337
5982 2 -4.570189
5982 5843 -4.054065
5982 5982 18.709935
5982 5983 -11.217641
5982 5984 2.131961
5983 2 -0.549751
5983 6 -0.013755
5983 5982 -10.37829
5983 5983 23.520256
5983 5984 -11.57846
5984 2 -8.624314
5984 5982 1.380763
5984 5983 -11.217653
5984 5984 19.461205
5985 2 -4.545622
5985 5839 -4.054065
5985 5985 18.639165
5985 5986 -11.207629
5985 5987 2.168151
5986 2 -0.551505
5986 6 -0.013755
5986 5985 -10.298249
5986 5986 23.506194
5986 5987 -11.642685
5987 2 -8.623392
5987 5985 1.342713
5987 5986 -11.212658
5987 5987 19.493337
5988 2 -4.570189
5988 5843 -4.054065
5988 5988 18.709935
5988 5989 -11.217641
5988 5990 2.131961
5989 2 -0.549751
5989 6 -0.013755
5989 5988 -10.37829
5989 5989 23.520256
5989 5990 -11.57846
5990 2 -8.624314
5990 5988 1.380763
5990 5989 -11.217653
5990 5990 19.461205
5991 2 -4.545622
5991 5839 -4.054065
5991 5991 18.639165
5991 5992 -11.207629
5991 5993 2.168151
5992 2 -0.551505
5992 6 -0.013755
5992 5991 -10.298249
5992 5992 23.506194
5992 5993 -11.642685
5993 2 -8.623392
5993 5991 1.342713
5993 5992 -11.212658
5993 5993 19.493337
5994 2 -4.570189
5994 5843 -4.054065
5994 5994 18.709935
5994 5995 -11.217641
5994 5996 2.131961
5995 2 -0.549751
5995 6 -0.013755
5995 5994 -10.37829
5995 5995 23.520256
5995 5996 -11.57846
5996 2 -8.624314
5996 5994 1.380763
5996 5995 -11.217653
5996 5996 19.461205
5997 2 -4.545622
5997 5839 -4.054065
5997 5997 18.639165
5997 5998 -11.207629
5997 5999 2.168151
5998 2 -0.551505
5998 6 -0.013755
5998 5997 -10.298249
5998 5998 23.506194
5998 5999 -11.642685
5999 2 -8.623392
5999 5997 1.342713
5999 5998 -11.212658
5999 5999 19.493337
6000 2 -4.570189
6000 5843 -4.054065
6000 6000 18.709935
6000 6001 -11.217641
6000 6002 2.131961
6001 2 -0.549751
6001 6 -0.013755
6001 6000 -10.37829
6001 6001 23.520256
6001 6002 -11.57846
6002 2 -8.624314
6002 6000 1.380763
6002 6001 -11.217653
6002 6002 19.461205
6003 2 -4.545622
6003 5839 -4.054065
6003 6003 18.639165
6003 6004 -11.207629
6003 6005 2.168151
6004 2 -0.551505
6004 6 -0.013755
6004 6003 -10.298249
6004 6004 23.506194
6004 6005 -11.642685
6005 2 -8.623392
6005 6003 1.342713
6005 6004 -11.212658
6005 6005 19.493337
6006 2 -4.570189
6006 5843 -4.054065
6006 6006 18.709935
6006 6007 -11.217641
6006 6008 2.131961
6007 2 -0.549751
6007 6 -0.013755
6007 6006 -10.37829
6007 6007 23.520256
6007 6008 -11.57846
6008 2 -8.624314
6008 6006 1.380763
6008 6007 -11.217653
6008 6008 19.461205
6009 2 -4.545622
6009 5839 -4.054065
6009 6009 18.639165
6009 6010 -11.207629
6009 6011 2.168151
6010 2 -0.551505
6010 6 -0.013755
6010 6009 -10.298249
6010 6010 23.506194
6010 6011 -11.642685
6011 2 -8.623392
6011 6009 1.342713
6011 6010 -11.212658
6011 6011 19.493337
6012 2 -4.570189
6012 5843 -4.054065
6012 6012 18.709935
6012 6013 -11.217641
6012 6014 2.131961
6013 2 -0.549751
6013 6 -0.013755
6013 6012 -10.37829
6013 6013 23.520256
6013 6014 -11.57846
6014 2 -8.624314
6014 6012 1.380763
6014 6013 -11.217653
6014 6014 19.461205
6015 2 -4.545622
6015 5839 -4.054065
6015 6015 18.639165
6015 6016 -11.207629
6015 6017 2.168151
6016 2 -0.551505
6016 6 -0.013755
6016 6015 -10.298249
6016 6016 23.506194
6016 6017 -11.642685
6017 2 -8.623392
6017 6015 1.342713
6017 6016 -11.212658
6017 6017 19.493337
6018 2 -4.570189
6018 5843 -4.054065
6018 6018 18.709935
6018 6019 -11.217641
6018 6020 2.131961
6019 2 -0.549751
6019 6 -0.013755
6019 6018 -10.37829
6019 6019 23.520256
6019 6020 -11.57846
6020 2 -8.624314
6020 6018 1.380763
6020 6019 -11.217653
6020 6020 19.461205
6021 2 -4.545622
6021 5839 -4.054065
6021 6021 18.639165
6021 6022 -11.207629
6021 6023 2.168151
6022 2 -0.551505
6022 6 -0.013755
6022 6021 -10.298249
6022 6022 23.506194
6022 6023 -11.642685
6023 2 -8.623392
6023 6021 1.342713
6023 6022 -11.212658
6023 6023 19.493337
6024 2 -4.570189
6024 5843 -4.054065
6024 6024 18.709935
6024 6025 -11.217641
6024 6026 2.131961
6025 2 -0.549751
6025 6 -0.013755
6025 6024 -10.37829
6025 6025 23.520256
6025 6026 -11.57846
6026 2 -8.624314
6026 6024 1.380763
6026 6025 -11.217653
6026 6026 19.461205
6027 2 -4.545622
6027 5839 -4.054065
6027 6027 18.639165
6027 6028 -11.207629
6027 6029 2.168151
6028 2 -0.551505
6028 6 -0.013755
6028 6027 -10.298249
6028 6028 23.506194
6028 6029 -11.642685
6029 2 -8.623392
6029 6027 1.342713
6029 6028 -11.212658
6029 6029 19.493337
6030 2 -4.570189
6030 5843 -4.054065
6030 6030 18.709935
6030 6031 -11.217641
6030 6032 2.131961
6031 2 -0.549751
6031 6 -0.013755
6031 6030 -10.37829
6031 6031 23.520256
6031 6032 -11.57846
6032 2 -8.624314
6032 6030 1.380763
6032 6031 -11.217653
6032 6032 19.461205
6033 2 -4.545622
6033 5839 -4.054065
6033 6033 18.639165
6033 6034 -11.207629
6033 6035 2.168151
6034 2 -0.551505
6034 6 -0.013755
6034 6033 -10.298249
6034 6034 23.506194
6034 6035 -11.642685
6035 2 -8.623392
6035 6033 1.342713
6035 6034 -11.212658
6035 6035 19.493337
6036 2 -4.570189
6036 5843 -4.054065
6036 6036 18.709935
6036 6037 -11.217641
6036 6038 2.131961
6037 2 -0.549751
6037 6 -0.013755
6037 6036 -10.37829
6037 6037 23.520256
6037 6038 -11.57846
6038 2 -8.624314
6038 6036 1.380763
6038 6037 -11.217653
6038 6038 19.461205
6039 2 -4.545622
6039 5839 -4.054065
6039 6039 18.639165
6039 6040 -11.207629
6039 6041 2.168151
6040 2 -0.551505
6040 6 -0.013755
6040 6039 -10.298249
6040 6040 23.506194
6040 6041 -11.642685
6041 2 -8.623392
6041 6039 1.342713
6041 6040 -11.212658
6041 6041 19.493337
6042 2 -4.570189
6042 5843 -4.054065
6042 6042 18.709935
6042 6043 -11.217641
6042 6044 2.131961
6043 2 -0.549751
6043 6 -0.013755
6043 6042 -10.37829
6043 6043 23.520256
6043 6044 -11.57846
6044 2 -8.624314
6044 6042 1.380763
6044 6043 -11.217653
6044 6044 19.461205
6045 2 -4.545622
6045 5839 -4.054065
6045 6045 18.639165
6045 6046 -11.207629
6045 6047 2.168151
6046 2 -0.551505
6046 6 -0.013755
6046 6045 -10.298249
6046 6046 23.506194
6046 6047 -11.642685
6047 2 -8.623392
6047 6045 1.342713
6047 6046 -11.212658
6047 6047 19.493337
6048 2 -4.570189
6048 5843 -4.054065
6048 6048 18.709935
6048 6049 -11.217641
6048 6050 2.131961
6049 2 -0.549751
6049 6 -0.013755
6049 6048 -10.37829
6049 6049 23.520256
6049 6050 -11.57846
6050 2 -8.624314
6050 6048 1.380763
6050 6049 -11.217653
6050 6050 19.461205
6051 2 -4.545622
6051 5839 -4.054065
6051 6051 18.639165
6051 6052 -11.207629
6051 6053 2.168151
6052 2 -0.551505
6052 6 -0.013755
6052 6051 -10.298249
6052 6052 23.506194
6052 6053 -11.642685
6053 2 -8.623392
6053 6051 1.342713
6053 6052 -11.212658
6053 6053 19.493337
6054 2 -4.570189
6054 5843 -4.054065
6054 6054 18.709935
6054 6055 -11.217641
6054 6056 2.131961
6055 2 -0.549751
6055 6 -0.013755
6055 6054 -10.37829
6055 6055 23.520256
6055 6056 -11.57846
6056 2 -8.624314
6056 6054 1.380763
6056 6055 -11.217653
6056 6056 19.461205
6057 2 -4.545622
6057 5839 -4.054065
6057 6057 18.639165
6057 6058 -11.207629
6057 6059 2.168151
6058 2 -0.551505
6058 6 -0.013755
6058 6057 -10.298249
6058 6058 23.506194
6058 6059 -11.642685
6059 2 -8.623392
6059 6057 1.342713
6059 6058 -11.212658
6059 6059 19.493337
6060 2 -4.570189
6060 5843 -4.054065
6060 6060 18.709935
6060 6061 -11.217641
6060 6062 2.131961
6061 2 -0.549751
6061 6 -0.013755
6061 6060 -10.37829
6061 6061 23.520256
6061 6062 -11.57846
6062 2 -8.624314
6062 6060 1.380763
6062 6061 -11.217653
6062 6062 19.461205
6063 2 -4.545622
6063 5839 -4.054065
6063 6063 18.639165
6063 6064 -11.207629
6063 6065 2.168151
6064 2 -0.551505
6064 6 -0.013755
6064 6063 -10.298249
6064 6064 23.506194
6064 6065 -11.642685
6065 2 -8.623392
6065 6063 1.342713
6065 6064 -11.212658
6065 6065 19.493337
6066 2 -4.570189
6066 5843 -4.054065
6066 6066 18.709935
6066 6067 -11.217641
6066 6068 2.131961
6067 2 -0.549751
6067 6 -0.013755
6067 6066 -10.37829
6067 6067 23.520256
6067 6068 -11.57846
6068 2 -8.624314
6068 6066 1.380763
6068 6067 -11.217653
6068 6068 19.461205
6069 2 -4.545622
6069 5839 -4.054065
6069 6069 18.639165
6069 6070 -11.207629
6069 6071 2.168151
6070 2 -0.551505
6070 6 -0.013755
6070 6069 -10.298249
6070 6070 23.506194
6070 6071 -11.642685
6071 2 -8.623392
6071 6069 1.342713
6071 6070 -11.212658
6071 6071 19.493337
6072 2 -4.570189
6072 5843 -4.054065
6072 6072 18.709935
6072 6073 -11.217641
6072 6074 2.131961
6073 2 -0.549751
6073 6 -0.013755
6073 6072 -10.37829
6073 6073 23.520256
6073 6074 -11.57846
6074 2 -8.624314
6074 6072 1.380763
6074 6073 -11.217653
6074 6074 19.461205
6075 2 -4.545622
6075 5839 -4.054065
6075 6075 18.639165
6075 6076 -11.207629
6075 6077 2.168151
6076 2 -0.551505
6076 6 -0.013755
6076 6075 -10.298249
6076 6076 23.506194
6076 6077 -11.642685
6077 2 -8.623392
6077 6075 1.342713
6077 6076 -11.212658
6077 6077 19.493337
6078 2 -4.570189
6078 5843 -4.054065
6078 6078 18.709935
6078 6079 -11.217641
6078 6080 2.131961
6079 2 -0.549751
6079 6 -0.013755
6079 6078 -10.37829
6079 6079 23.520256
6079 6080 -11.57846
6080 2 -8.624314
6080 6078 1.380763
6080 6079 -11.217653
6080 6080 19.461205
6081 2 -4.545622
6081 5839 -4.054065
6081 6081 18.639165
6081 6082 -11.207629
6081 6083 2.168151
6082 2 -0.551505
6082 6 -0.013755
6082 6081 -10.298249
6082 6082 23.506194
6082 6083 -11.642685
6083 2 -8.623392
6083 6081 1.342713
6083 6082 -11.212658
6083 6083 19.493337
6084 2 -4.570189
6084 5843 -4.054065
6084 6084 18.709935
6084 6085 -11.217641
6084 6086 2.131961
6085 2 -0.549751
6085 6 -0.013755
6085 6084 -10.37829
6085 6085 23.520256
6085 6086 -11.57846
6086 2 -8.624314
6086 6084 1.380763
6086 6085 -11.217653
6086 6086 19.461205
6087 2 -4.545622
6087 5839 -4.054065
6087 6087 18.639165
6087 6088 -11.207629
6087 6089 2.168151
6088 2 -0.551505
6088 6 -0.013755
6088 6087 -10.298249
6088 6088 23.506194
6088 6089 -11.642685
6089 2 -8.623392
6089 6087 1.342713
6089 6088 -11.212658
6089 6089 19.493337
6090 2 -4.570189
6090 5843 -4.054065
6090 6090 18.709935
6090 6091 -11.217641
6090 6092 2.131961
6091 2 -0.549751
6091 6 -0.013755
6091 6090 -10.37829
6091 6091 23.520256
6091 6092 -11.57846
6092 2 -8.624314
6092 6090 1.380763
6092 6091 -11.217653
6092 6092 19.461205
6093 2 -4.545622
6093 5839 -4.054065
6093 6093 18.639165
6093 6094 -11.207629
6093 6095 2.168151
6094 2 -0.551505
6094 6 -0.013755
6094 6093 -10.298249
6094 6094 23.506194
6094 6095 -11.642685
6095 2 -8.623392
6095 6093 1.342713
6095 6094 -11.212658
6095 6095 19.493337
6096 2 -4.570189
6096 5843 -4.054065
6096 6096 18.709935
6096 6097 -11.217641
6096 6098 2.131961
6097 2 -0.549751
6097 6 -0.013755
6097 6096 -10.37829
6097 6097 23.520256
6097 6098 -11.57846
6098 2 -8.624314
6098 6096 1.380763
6098 6097 -11.217653
6098 6098 19.461205
6099 2 -4.545622
6099 5839 -4.054065
6099 6099 18.639165
6099 6100 -11.207629
6099 6101 2.168151
6100 2 -0.551505
6100 6 -0.013755
6100 6099 -10.298249
6100 6100 23.506194
6100 6101 -11.642685
6101 2 -8.623392
6101 6099 1.342713
6101 6100 -11.212658
6101 6101 19.493337
6102 2 -4.570189
6102 5843 -4.054065
6102 6102 18.709935
6102 6103 -11.217641
6102 6104 2.131961
6103 2 -0.549751
6103 6 -0.013755
6103 6102 -10.37829
6103 6103 23.520256
6103 6104 -11.57846
6104 2 -8.624314
6104 6102 1.380763
6104 6103 -11.217653
6104 6104 19.461205
6105 2 -6.928607
6105 5839 -2.674898
6105 6105 19.642999
6105 6106 -11.207633
6105 6107 2.16814
6106 2 -0.551504
6106 6 -0.013755
6106 6105 -10.298274
6106 6106 23.506198
6106 6107 -11.642665
6107 2 -8.623392
6107 6105 1.342724
6107 6106 -11.21266
6107 6107 19.493328
6108 2 -6.966379
6108 5843 -2.674898
6108 6108 19.726958
6108 6109 -11.217641
6108 6110 2.131961
6109 2 -0.549751
6109 6 -0.013755
6109 6108 -10.378291
6109 6109 23.520257
6109 6110 -11.57846
6110 2 -8.624314
6110 6108 1.380763
6110 6109 -11.217653
6110 6110 19.461204
6111 2 -1.359884
6111 5654 -1.216214
6111 6111 6.225467
6111 6112 -3.339768
6111 6113 0.690399
6112 2 -0.161051
6112 5653 -0.045872
6112 6111 -2.9841
6112 6112 7.75093
6112 6113 -3.559907
6113 2 -2.076146
6113 5839 -0.802472
6113 6111 0.33981
6113 6112 -3.349707
6113 6113 6.888515
6114 2 -0.991729
6114 5653 -1.216214
6114 6114 4.887432
6114 6115 -1.706123
6114 6116 0.026634
6115 2 -0.327073
6115 5654 -0.045872
6115 6114 -1.666352
6115 6115 4.971188
6115 6116 -1.931892
6116 2 -2.025356
6116 5843 -0.802472
6116 6114 -0.001808
6116 6115 -1.912362
6116 6116 5.741997
6117 2 -1.359885
6117 5654 -1.216214
6117 6117 6.225427
6117 6118 -3.339753
6117 6119 0.690425
6118 2 -0.16106
6118 5653 -0.045872
6118 6117 -2.984033
6118 6118 7.750906
6118 6119 -3.559941
6119 2 -1.472281
6119 5839 -1.216214
6119 6117 0.339779
6119 6118 -3.349697
6119 6119 6.698412
6120 2 -0.991729
6120 5653 -1.216214
6120 6120 4.887432
6120 6121 -1.706124
6120 6122 0.026634
6121 2 -0.327073
6121 5654 -0.045872
6121 6120 -1.666352
6121 6121 4.971189
6121 6122 -1.931893
6122 2 -1.418258
6122 5843 -1.216214
6122 6120 -0.001808
6122 6121 -1.912363
6122 6122 5.548642
6123 2 -1.359885
6123 5654 -1.216214
6123 6123 6.225427
6123 6124 -3.339753
6123 6125 0.690425
6124 2 -0.16106
6124 5653 -0.045872
6124 6123 -2.984033
6124 6124 7.750906
6124 6125 -3.559941
6125 2 -1.472281
6125 5839 -1.216214
6125 6123 0.339779
6125 6124 -3.349697
6125 6125 6.698412
6126 2 -0.991729
6126 5653 -1.216214
6126 6126 4.887432
6126 6127 -1.706124
6126 6128 0.026634
6127 2 -0.327073
6127 5654 -0.045872
6127 6126 -1.666352
6127 6127 4.971189
6127 6128 -1.931893
6128 2 -1.418258
6128 5843 -1.216214
6128 6126 -0.001808
6128 6127 -1.912363
6128 6128 5.548642
6129 2 -1.359885
6129 5654 -1.216214
6129 6129 6.225427
6129 6130 -3.339753
6129 6131 0.690425
6130 2 -0.16106
6130 5653 -0.045872
6130 6129 -2.984033
6130 6130 7.750906
6130 6131 -3.559941
6131 2 -1.472281
6131 5839 -1.216214
6131 6129 0.339779
6131 6130 -3.349697
6131 6131 6.698412
6132 2 -0.991729
6132 5653 -1.216214
6132 6132 4.887432
6132 6133 -1.706124
6132 6134 0.026634
6133 2 -0.327073
6133 5654 -0.045872
6133 6132 -1.666352
6133 6133 4.971189
6133 6134 -1.931893
6134 2 -1.418258
6134 5843 -1.216214
6134 6132 -0.001808
6134 6133 -1.912363
6134 6134 5.548642
6135 2 -1.359885
6135 5654 -1.216214
6135 6135 6.225427
6135 6136 -3.339753
6135 6137 0.690425
6136 2 -0.16106
6136 5653 -0.045872
6136 6135 -2.984033
6136 6136 7.750906
6136 6137 -3.559941
6137 2 -1.472281
6137 5839 -1.216214
6137 6135 0.339779
6137 6136 -3.349697
6137 6137 6.698412
6138 2 -0.991729
6138 5653 -1.216214
6138 6138 4.887432
6138 6139 -1.706124
6138 6140 0.026634
6139 2 -0.327073
6139 5654 -0.045872
6139 6138 -1.666352
6139 6139 4.971189
6139 6140 -1.931893
6140 2 -1.418258
6140 5843 -1.216214
6140 6138 -0.001808
6140 6139 -1.912363
6140 6140 5.548642
6141 2 -1.359883
6141 5654 -1.216214
6141 6141 6.225469
6141 6142 -3.339769
6141 6143 0.690397
6142 2 -0.161051
6142 5653 -0.045872
6142 6141 -2.984103
6142 6142 7.750931
6142 6143 -3.559906
6143 2 -2.41089
6143 5839 -0.789478
6143 6141 0.339811
6143 6142 -3.349708
6143 6143 7.210264
6144 2 -0.991729
6144 5653 -1.216214
6144 6144 4.887432
6144 6145 -1.706123
6144 6146 0.026634
6145 2 -0.327073
6145 5654 -0.045872
6145 6144 -1.666352
6145 6145 4.971188
6145 6146 -1.931892
6146 2 -2.362692
6146 5843 -0.789478
6146 6144 -0.001808
6146 6145 -1.912362
6146 6146 6.06634
6147 2 -0.719373
6147 5654 -0.608106
6147 6147 3.250411
6147 6148 -0.92881
6147 6149 0.005878
6148 2 -0.164865
6148 5650 -0.091743
6148 6147 -0.91667
6148 6148 3.124226
6148 6149 -0.950948
6149 2 -1.69898
6149 6147 -0.000375
6149 6148 -0.945945
6149 6149 3.6453
6150 2 -0.719373
6150 5654 -0.608106
6150 6150 3.250411
6150 6151 -0.92881
6150 6152 0.005878
6151 2 -0.164865
6151 5650 -0.091743
6151 6150 -0.91667
6151 6151 3.124226
6151 6152 -0.950948
6152 2 -1.69898
6152 6150 -0.000375
6152 6151 -0.945945
6152 6152 3.6453
6153 2 -0.557976
6153 5653 -0.608106
6153 6153 3.06113
6153 6154 -1.324226
6153 6155 0.429179
6154 2 -0.111838
6154 5652 -0.091743
6154 6153 -0.881666
6154 6154 3.977714
6154 6155 -1.892466
6155 2 -1.71931
6155 6153 -0.027101
6155 6154 -1.538372
6155 6155 4.284783
6156 2 -0.557976
6156 5653 -0.608106
6156 6156 3.06113
6156 6157 -1.324226
6156 6158 0.429179
6157 2 -0.111838
6157 5652 -0.091743
6157 6156 -0.881666
6157 6157 3.977714
6157 6158 -1.892466
6158 2 -1.71931
6158 6156 -0.027101
6158 6157 -1.538372
6158 6158 4.284783
6159 2 -2.217002
6159 5747 -2.837837
6159 6159 9.985366
6159 6160 -4.004088
6159 6161 0.073562
6160 2 -0.903635
6160 5654 -0.021413
6160 6159 -3.896699
6160 6160 10.353314
6160 6161 -4.531567
6161 2 -7.027212
6161 6159 -0.004654
6161 6160 -4.478917
6161 6161 12.510783
6162 2 -2.851089
6162 5751 -2.837837
6162 6162 12.869299
6162 6163 -8.25491
6162 6164 2.074538
6163 2 -0.464973
6163 5653 -0.021413
6163 6162 -6.876227
6163 6163 17.687299
6163 6164 -9.324686
6164 2 -7.190337
6164 6162 0.712611
6164 6163 -8.350142
6164 6164 15.827868
6165 2 -2.217002
6165 5747 -2.837837
6165 6165 9.985366
6165 6166 -4.004089
6165 6167 0.073563
6166 2 -0.903635
6166 5654 -0.021413
6166 6165 -3.896699
6166 6166 10.353317
6166 6167 -4.531569
6167 2 -5.934296
6167 6165 -0.004654
6167 6166 -4.478918
6167 6167 11.417869
6168 2 -2.851097
6168 5751 -2.837837
6168 6168 12.869122
6168 6169 -8.254807
6168 6170 2.074619
6169 2 -0.465003
6169 5653 -0.021413
6169 6168 -6.875954
6169 6169 17.687144
6169 6170 -9.324774
6170 2 -6.098052
6170 6168 0.712498
6170 6169 -8.350081
6170 6170 14.735635
6171 2 -2.217002
6171 5747 -2.837837
6171 6171 9.985366
6171 6172 -4.004089
6171 6173 0.073563
6172 2 -0.903635
6172 5654 -0.021413
6172 6171 -3.896699
6172 6172 10.353317
6172 6173 -4.531569
6173 2 -5.934296
6173 6171 -0.004654
6173 6172 -4.478918
6173 6173 11.417869
6174 2 -2.851097
6174 5751 -2.837837
6174 6174 12.869122
6174 6175 -8.254807
6174 6176 2.074619
6175 2 -0.465003
6175 5653 -0.021413
6175 6174 -6.875954
6175 6175 17.687144
6175 6176 -9.324774
6176 2 -6.098052
6176 6174 0.712498
6176 6175 -8.350081
6176 6176 14.735635
6177 2 -2.217002
6177 5747 -2.837837
6177 6177 9.985366
6177 6178 -4.004088
6177 6179 0.073562
6178 2 -0.903635
6178 5654 -0.021413
6178 6177 -3.896699
6178 6178 10.353314
6178 6179 -4.531567
6179 2 -7.027212
6179 6177 -0.004654
6179 6178 -4.478917
6179 6179 12.510783
6180 2 -2.851089
6180 5751 -2.837837
6180 6180 12.869299
6180 6181 -8.25491
6180 6182 2.074538
6181 2 -0.464973
6181 5653 -0.021413
6181 6180 -6.876227
6181 6181 17.687299
6181 6182 -9.324686
6182 2 -7.190337
6182 6180 0.712611
6182 6181 -8.350142
6182 6182 15.827868
6183 2 -2.692225
6183 8 -3.162165
6183 6183 11.685856
6183 6184 -7.494203
6183 6185 2.662737
6184 2 -0.636465
6184 5747 -0.019231
6184 6183 -4.79398
6184 6184 17.343914
6184 6185 -10.894237
6185 2 -7.939042
6185 6183 -0.118593
6185 6184 -8.616771
6185 6185 17.674406
6186 2 -2.784716
6186 7 -3.162165
6186 6186 11.462558
6186 6187 -5.787313
6186 6188 1.271637
6187 2 -0.839581
6187 5751 -0.019231
6187 6186 -4.459496
6187 6187 14.070117
6187 6188 -7.751809
6188 2 -7.863945
6188 6186 -0.079384
6188 6187 -6.65711
6188 6188 15.600438
6189 2 -2.692237
6189 8 -3.162165
6189 6189 11.685876
6189 6190 -7.494214
6189 6191 2.66274
6190 2 -0.636503
6190 5747 -0.019231
6190 6189 -4.794009
6190 6190 17.343929
6190 6191 -10.894187
6191 2 -6.731939
6191 6189 -0.118583
6191 6190 -8.616775
6191 6191 16.467296
6192 2 -2.784716
6192 7 -3.162165
6192 6192 11.462559
6192 6193 -5.787303
6192 6194 1.271626
6193 2 -0.839582
6193 5751 -0.019231
6193 6192 -4.459497
6193 6193 14.070095
6193 6194 -7.751785
6194 2 -6.655982
6194 6192 -0.079383
6194 6193 -6.657095
6194 6194 14.392461
6195 2 -2.692237
6195 8 -3.162165
6195 6195 11.685876
6195 6196 -7.494214
6195 6197 2.66274
6196 2 -0.636503
6196 5747 -0.019231
6196 6195 -4.794009
6196 6196 17.343929
6196 6197 -10.894187
6197 2 -6.731939
6197 6195 -0.118583
6197 6196 -8.616775
6197 6197 16.467296
6198 2 -2.784716
6198 7 -3.162165
6198 6198 11.462559
6198 6199 -5.787303
6198 6200 1.271626
6199 2 -0.839582
6199 5751 -0.019231
6199 6198 -4.459497
6199 6199 14.070095
6199 6200 -7.751785
6200 2 -6.655982
6200 6198 -0.079383
6200 6199 -6.657095
6200 6200 14.392461
6201 2 -2.692237
6201 8 -3.162165
6201 6201 11.685876
6201 6202 -7.494214
6201 6203 2.66274
6202 2 -0.636503
6202 5747 -0.019231
6202 6201 -4.794009
6202 6202 17.343929
6202 6203 -10.894187
6203 2 -6.731939
6203 6201 -0.118583
6203 6202 -8.616775
6203 6203 16.467296
6204 2 -2.784716
6204 7 -3.162165
6204 6204 11.462559
6204 6205 -5.787303
6204 6206 1.271626
6205 2 -0.839582
6205 5751 -0.019231
6205 6204 -4.459497
6205 6205 14.070095
6205 6206 -7.751785
6206 2 -6.655982
6206 6204 -0.079383
6206 6205 -6.657095
6206 6206 14.392461
6207 2 -2.692237
6207 8 -3.162165
6207 6207 11.685876
6207 6208 -7.494214
6207 6209 2.66274
6208 2 -0.636503
6208 5747 -0.019231
6208 6207 -4.794009
6208 6208 17.343929
6208 6209 -10.894187
6209 2 -6.731939
6209 6207 -0.118583
6209 6208 -8.616775
6209 6209 16.467296
6210 2 -2.784716
6210 7 -3.162165
6210 6210 11.462559
6210 6211 -5.787303
6210 6212 1.271626
6211 2 -0.839582
6211 5751 -0.019231
6211 6210 -4.459497
6211 6211 14.070095
6211 6212 -7.751785
6212 2 -6.655982
6212 6210 -0.079383
6212 6211 -6.657095
6212 6212 14.392461
6213 2 -2.692237
6213 8 -3.162165
6213 6213 11.685876
6213 6214 -7.494214
6213 6215 2.66274
6214 2 -0.636503
6214 5747 -0.019231
6214 6213 -4.794009
6214 6214 17.343929
6214 6215 -10.894187
6215 2 -6.731939
6215 6213 -0.118583
6215 6214 -8.616775
6215 6215 16.467296
6216 2 -2.784716
6216 7 -3.162165
6216 6216 11.462559
6216 6217 -5.787303
6216 6218 1.271626
6217 2 -0.839582
6217 5751 -0.019231
6217 6216 -4.459497
6217 6217 14.070095
6217 6218 -7.751785
6218 2 -6.655982
6218 6216 -0.079383
6218 6217 -6.657095
6218 6218 14.392461
6219 2 -2.692237
6219 8 -3.162165
6219 6219 11.685876
6219 6220 -7.494214
6219 6221 2.66274
6220 2 -0.636503
6220 5747 -0.019231
6220 6219 -4.794009
6220 6220 17.343929
6220 6221 -10.894187
6221 2 -6.731939
6221 6219 -0.118583
6221 6220 -8.616775
6221 6221 16.467296
6222 2 -2.784716
6222 7 -3.162165
6222 6222 11.462559
6222 6223 -5.787303
6222 6224 1.271626
6223 2 -0.839582
6223 5751 -0.019231
6223 6222 -4.459497
6223 6223 14.070095
6223 6224 -7.751785
6224 2 -6.655982
6224 6222 -0.079383
6224 6223 -6.657095
6224 6224 14.392461
6225 2 -2.692237
6225 8 -3.162165
6225 6225 11.685876
6225 6226 -7.494214
6225 6227 2.66274
6226 2 -0.636503
6226 5747 -0.019231
6226 6225 -4.794009
6226 6226 17.343929
6226 6227 -10.894187
6227 2 -6.731939
6227 6225 -0.118583
6227 6226 -8.616775
6227 6227 16.467296
6228 2 -2.784716
6228 7 -3.162165
6228 6228 11.462559
6228 6229 -5.787303
6228 6230 1.271626
6229 2 -0.839582
6229 5751 -0.019231
6229 6228 -4.459497
6229 6229 14.070095
6229 6230 -7.751785
6230 2 -6.655982
6230 6228 -0.079383
6230 6229 -6.657095
6230 6230 14.392461
6231 2 -2.692237
6231 8 -3.162165
6231 6231 11.685876
6231 6232 -7.494214
6231 6233 2.66274
6232 2 -0.636503
6232 5747 -0.019231
6232 6231 -4.794009
6232 6232 17.343929
6232 6233 -10.894187
6233 2 -6.731939
6233 6231 -0.118583
6233 6232 -8.616775
6233 6233 16.467296
6234 2 -2.784716
6234 7 -3.162165
6234 6234 11.462559
6234 6235 -5.787303
6234 6236 1.271626
6235 2 -0.839582
6235 5751 -0.019231
6235 6234 -4.459497
6235 6235 14.070095
6235 6236 -7.751785
6236 2 -6.655982
6236 6234 -0.079383
6236 6235 -6.657095
6236 6236 14.392461
6237 2 -2.692237
6237 8 -3.162165
6237 6237 11.685876
6237 6238 -7.494214
6237 6239 2.66274
6238 2 -0.636503
6238 5747 -0.019231
6238 6237 -4.794009
6238 6238 17.343929
6238 6239 -10.894187
6239 2 -6.731939
6239 6237 -0.118583
6239 6238 -8.616775
6239 6239 16.467296
6240 2 -2.784716
6240 7 -3.162165
6240 6240 11.462559
6240 6241 -5.787303
6240 6242 1.271626
6241 2 -0.839582
6241 5751 -0.019231
6241 6240 -4.459497
6241 6241 14.070095
6241 6242 -7.751785
6242 2 -6.655982
6242 6240 -0.079383
6242 6241 -6.657095
6242 6242 14.392461
6243 2 -4.403003
6243 8 -2.052634
6243 6243 12.28731
6243 6244 -7.494432
6243 6245 2.662759
6244 2 -0.636486
6244 5747 -0.019231
6244 6243 -4.79426
6244 6244 17.34419
6244 6245 -10.894213
6245 2 -6.731946
6245 6243 -0.118527
6245 6244 -8.616832
6245 6245 16.467305
6246 2 -4.601901
6246 7 -2.052634
6246 6246 12.170222
6246 6247 -5.787303
6246 6248 1.271615
6247 2 -0.839583
6247 5751 -0.019231
6247 6246 -4.459508
6247 6247 14.070082
6247 6248 -7.75176
6248 2 -6.655982
6248 6246 -0.079383
6248 6247 -6.65708
6248 6248 14.392444
6249 1 -1.740607
6249 5 -15.337551
6249 5650 -0.11236
6249 6249 18.190518
6250 1 -1.804658
6250 5 -17.420734
6250 5652 -0.11236
6250 6250 20.337752
6251 1 -1.740607
6251 5 -15.337551
6251 5650 -0.11236
6251 6251 18.190518
6252 1 -1.804658
6252 5 -17.420734
6252 5652 -0.11236
6252 6252 20.337752
6253 1 -1.740607
6253 5 -15.337551
6253 5650 -0.11236
6253 6253 18.190518
6254 1 -1.804658
6254 5 -17.420734
6254 5652 -0.11236
6254 6254 20.337752
6255 1 -1.738918
6255 5 -15.188513
6255 5654 -0.11236
6255 6255 18.039791
6256 1 -1.804508
6256 5 -17.420749
6256 5653 -0.11236
6256 6256 20.337617
6257 1 -1.738918
6257 5 -15.188513
6257 5654 -0.11236
6257 6257 18.039791
6258 1 -1.804508
6258 5 -17.420749
6258 5653 -0.11236
6258 6258 20.337617
6259 1 -1.738918
6259 5 -15.188513
6259 5654 -0.11236
6259 6259 18.039791
6260 1 -1.804508
6260 5 -17.420749
6260 5653 -0.11236
6260 6260 20.337617
6261 5650 -1.020408
6261 6261 2.020408
6261 7526 -1.0
6262 1 -19.606396
6262 5654 -27.7502
6262 6262 48.356596
6263 1 -19.606396
6263 5650 -27.7502
6263 6263 48.356596
6264 5652 -1.020408
6264 6264 2.020408
6264 7525 -1.0
6265 1 -19.606396
6265 5653 -27.7502
6265 6265 48.356596
6266 1 -19.606396
6266 5652 -27.7502
6266 6266 48.356596
6267 49 -4.385965
6267 6267 5.385965
6267 7523 -1.0
6268 52 -4.385965
6268 6268 5.385965
6268 7522 -1.0
6269 6269 5.385965
6269 6270 -4.385965
6269 7521 -1.0
6270 1 -16.8765
6270 2 -9.244
6270 4 -1.0705
6270 5 -2.0275
6270 6269 -4.385965
6270 6270 155.606038
6270 6275 -34.3644
6270 6277 -57.346
6270 6772 -0.091743
6270 6775 -0.091743
6270 6873 -0.11236
6270 6875 -0.11236
6270 6877 -0.11236
6270 6885 -1.020408
6270 6887 -27.7502
6271 6271 5.385965
6271 6272 -4.385965
6271 7524 -1.0
6272 1 -16.882
6272 2 -9.139
6272 4 -1.0705
6272 5 -2.094
6272 6271 -4.385965
6272 6272 155.555538
6272 6274 -34.3639
6272 6278 -57.329
6272 6778 -0.091743
6272 6781 -0.091743
6272 6874 -0.11236
6272 6876 -0.11236
6272 6878 -0.11236
6272 6888 -1.020408
6272 6890 -27.7502
6273 6273 5.385965
6273 6891 -4.385965
6273 7524 1.0
6274 1 -41.117
6274 2 -16.5255
6274 4 -25.0715
6274 5 -2.03
6274 6 -0.315
6274 6272 -34.3639
6274 6274 256.827596
6274 6275 -12.9405
6274 6278 -63.223
6274 6280 -0.045872
6274 6282 -0.789478
6274 6286 -0.045872
6274 6288 -1.216214
6274 6292 -0.045872
6274 6294 -1.216214
6274 6298 -0.045872
6274 6300 -1.216214
6274 6304 -0.045872
6274 6306 -1.216214
6274 6310 -0.045872
6274 6312 -1.216214
6274 6316 -0.045872
6274 6318 -1.216214
6274 6322 -0.045872
6274 6324 -1.216214
6274 6328 -0.045872
6274 6330 -1.216214
6274 6334 -0.045872
6274 6336 -1.216214
6274 6340 -0.045872
6274 6342 -1.216214
6274 6346 -0.045872
6274 6348 -1.216214
6274 6352 -0.045872
6274 6354 -1.216214
6274 6358 -0.045872
6274 6360 -1.216214
6274 6364 -0.045872
6274 6366 -1.216214
6274 6373 -1.522
6274 6463 -0.4245
6274 6467 -2.8285
6274 6736 -0.045872
6274 6738 -1.216214
6274 6742 -0.045872
6274 6744 -1.216214
6274 6748 -0.045872
6274 6750 -1.216214
6274 6754 -0.045872
6274 6756 -1.216214
6274 6760 -0.045872
6274 6762 -1.216214
6274 6766 -0.045872
6274 6768 -1.216214
6274 6777 -0.608106
6274 6780 -0.608106
6274 6787 -0.021413
6274 6793 -0.021413
6274 6799 -0.021413
6274 6805 -0.021413
6274 6880 -0.11236
6274 6882 -0.11236
6274 6884 -0.11236
6274 6889 -27.7502
6274 7519 1.0
6274 7523 1.0
6275 1 -41.1965
6275 2 -16.6505
6275 4 -25.0385
6275 5 -1.968
6275 6 -0.31
6275 6270 -34.3644
6275 6274 -12.9405
6275 6275 256.913596
6275 6277 -63.2005
6275 6279 -0.789478
6275 6283 -0.045872
6275 6285 -1.216214
6275 6289 -0.045872
6275 6291 -1.216214
6275 6295 -0.045872
6275 6297 -1.216214
6275 6301 -0.045872
6275 6303 -1.216214
6275 6307 -0.045872
6275 6309 -1.216214
6275 6313 -0.045872
6275 6315 -1.216214
6275 6319 -0.045872
6275 6321 -1.216214
6275 6325 -0.045872
6275 6327 -1.216214
6275 6331 -0.045872
6275 6333 -1.216214
6275 6337 -0.045872
6275 6339 -1.216214
6275 6343 -0.045872
6275 6345 -1.216214
6275 6349 -0.045872
6275 6351 -1.216214
6275 6355 -0.045872
6275 6357 -1.216214
6275 6361 -0.045872
6275 6363 -1.216214
6275 6367 -0.045872
6275 6369 -1.522
6275 6463 -2.832
6275 6467 -0.4245
6275 6735 -1.216214
6275 6739 -0.045872
6275 6741 -1.216214
6275 6745 -0.045872
6275 6747 -1.216214
6275 6751 -0.045872
6275 6753 -1.216214
6275 6757 -0.045872
6275 6759 -1.216214
6275 6763 -0.045872
6275 6765 -1.216214
6275 6769 -0.045872
6275 6771 -0.608106
6275 6774 -0.608106
6275 6784 -0.021413
6275 6790 -0.021413
6275 6796 -0.021413
6275 6802 -0.021413
6275 6879 -0.11236
6275 6881 -0.11236
6275 6883 -0.11236
6275 6886 -27.7502
6275 7520 1.0
6275 7522 1.0
6276 6276 5.385965
6276 6892 -4.385965
6276 7521 1.0
6277 1 -132.8115
6277 2 -194.2496
6277 4 -52.4615
6277 5 -55.2875
6277 6270 -57.346
6277 6275 -63.2005
6277 6277 557.2816
6277 6395 -0.4625
6277 6399 -0.4625
6278 1 -132.228
6278 2 -197.5526
6278 4 -52.4615
6278 5 -55.5525
6278 6272 -57.329
6278 6274 -63.223
6278 6278 560.4086
6278 6395 -0.531
6278 6399 -0.531
6279 4 -2.248954
6279 6275 -0.789478
6279 6279 5.844957
6279 6280 -2.712339
6279 6281 0.905813
6280 4 -0.294955
6280 6274 -0.045872
6280 6279 -1.838586
6280 6280 6.997295
6280 6281 -3.817882
6281 4 -2.944414
6281 6279 -0.060641
6281 6280 -3.048949
6281 6281 7.054004
6282 4 -2.084137
6282 6274 -0.789478
6282 6282 5.464903
6282 6283 -2.484362
6282 6284 0.893073
6283 4 -0.334257
6283 6275 -0.045872
6283 6282 -1.60914
6283 6283 6.769759
6283 6284 -3.780492
6284 4 -2.933825
6284 6282 -0.077481
6284 6283 -3.029573
6284 6284 7.040878
6285 4 -1.385671
6285 6275 -1.216214
6285 6285 5.408419
6285 6286 -2.712348
6285 6287 0.905814
6286 4 -0.294953
6286 6274 -0.045872
6286 6285 -1.838597
6286 6286 6.997304
6286 6287 -3.817883
6287 4 -2.944414
6287 6285 -0.060638
6287 6286 -3.048952
6287 6287 7.054005
6288 4 -1.282814
6288 6274 -1.216214
6288 6288 5.09029
6288 6289 -2.484334
6288 6290 0.893071
6289 4 -0.33426
6289 6275 -0.045872
6289 6288 -1.609112
6289 6289 6.769732
6289 6290 -3.780488
6290 4 -2.933822
6290 6288 -0.077481
6290 6289 -3.029573
6290 6290 7.040876
6291 4 -1.385671
6291 6275 -1.216214
6291 6291 5.408419
6291 6292 -2.712348
6291 6293 0.905814
6292 4 -0.294953
6292 6274 -0.045872
6292 6291 -1.838597
6292 6292 6.997304
6292 6293 -3.817883
6293 4 -2.944414
6293 6291 -0.060638
6293 6292 -3.048952
6293 6293 7.054005
6294 4 -1.282814
6294 6274 -1.216214
6294 6294 5.09029
6294 6295 -2.484334
6294 6296 0.893071
6295 4 -0.33426
6295 6275 -0.045872
6295 6294 -1.609112
6295 6295 6.769732
6295 6296 -3.780488
6296 4 -2.933822
6296 6294 -0.077481
6296 6295 -3.029573
6296 6296 7.040876
6297 4 -1.385671
6297 6275 -1.216214
6297 6297 5.408419
6297 6298 -2.712348
6297 6299 0.905814
6298 4 -0.294953
6298 6274 -0.045872
6298 6297 -1.838597
6298 6298 6.997304
6298 6299 -3.817883
6299 4 -2.944414
6299 6297 -0.060638
6299 6298 -3.048952
6299 6299 7.054005
6300 4 -1.282814
6300 6274 -1.216214
6300 6300 5.09029
6300 6301 -2.484334
6300 6302 0.893071
6301 4 -0.33426
6301 6275 -0.045872
6301 6300 -1.609112
6301 6301 6.769732
6301 6302 -3.780488
6302 4 -2.933822
6302 6300 -0.077481
6302 6301 -3.029573
6302 6302 7.040876
6303 4 -1.385671
6303 6275 -1.216214
6303 6303 5.408419
6303 6304 -2.712348
6303 6305 0.905814
6304 4 -0.294953
6304 6274 -0.045872
6304 6303 -1.838597
6304 6304 6.997304
6304 6305 -3.817883
6305 4 -2.944414
6305 6303 -0.060638
6305 6304 -3.048952
6305 6305 7.054005
6306 4 -1.282814
6306 6274 -1.216214
6306 6306 5.09029
6306 6307 -2.484334
6306 6308 0.893071
6307 4 -0.33426
6307 6275 -0.045872
6307 6306 -1.609112
6307 6307 6.769732
6307 6308 -3.780488
6308 4 -2.933822
6308 6306 -0.077481
6308 6307 -3.029573
6308 6308 7.040876
6309 4 -1.385671
6309 6275 -1.216214
6309 6309 5.408419
6309 6310 -2.712348
6309 6311 0.905814
6310 4 -0.294953
6310 6274 -0.045872
6310 6309 -1.838597
6310 6310 6.997304
6310 6311 -3.817883
6311 4 -2.944414
6311 6309 -0.060638
6311 6310 -3.048952
6311 6311 7.054005
6312 4 -1.282814
6312 6274 -1.216214
6312 6312 5.09029
6312 6313 -2.484334
6312 6314 0.893071
6313 4 -0.33426
6313 6275 -0.045872
6313 6312 -1.609112
6313 6313 6.769732
6313 6314 -3.780488
6314 4 -2.933822
6314 6312 -0.077481
6314 6313 -3.029573
6314 6314 7.040876
6315 4 -1.385671
6315 6275 -1.216214
6315 6315 5.408419
6315 6316 -2.712348
6315 6317 0.905814
6316 4 -0.294953
6316 6274 -0.045872
6316 6315 -1.838597
6316 6316 6.997304
6316 6317 -3.817883
6317 4 -2.944414
6317 6315 -0.060638
6317 6316 -3.048952
6317 6317 7.054005
6318 4 -1.282814
6318 6274 -1.216214
6318 6318 5.09029
6318 6319 -2.484334
6318 6320 0.893071
6319 4 -0.33426
6319 6275 -0.045872
6319 6318 -1.609112
6319 6319 6.769732
6319 6320 -3.780488
6320 4 -2.933822
6320 6318 -0.077481
6320 6319 -3.029573
6320 6320 7.040876
6321 4 -1.385671
6321 6275 -1.216214
6321 6321 5.408419
6321 6322 -2.712348
6321 6323 0.905814
6322 4 -0.294953
6322 6274 -0.045872
6322 6321 -1.838597
6322 6322 6.997304
6322 6323 -3.817883
6323 4 -2.944414
6323 6321 -0.060638
6323 6322 -3.048952
6323 6323 7.054005
6324 4 -1.282814
6324 6274 -1.216214
6324 6324 5.09029
6324 6325 -2.484334
6324 6326 0.893071
6325 4 -0.33426
6325 6275 -0.045872
6325 6324 -1.609112
6325 6325 6.769732
6325 6326 -3.780488
6326 4 -2.933822
6326 6324 -0.077481
6326 6325 -3.029573
6326 6326 7.040876
6327 4 -1.385671
6327 6275 -1.216214
6327 6327 5.408419
6327 6328 -2.712348
6327 6329 0.905814
6328 4 -0.294953
6328 6274 -0.045872
6328 6327 -1.838597
6328 6328 6.997304
6328 6329 -3.817883
6329 4 -2.944414
6329 6327 -0.060638
6329 6328 -3.048952
6329 6329 7.054005
6330 4 -1.282814
6330 6274 -1.216214
6330 6330 5.09029
6330 6331 -2.484334
6330 6332 0.893071
6331 4 -0.33426
6331 6275 -0.045872
6331 6330 -1.609112
6331 6331 6.769732
6331 6332 -3.780488
6332 4 -2.933822
6332 6330 -0.077481
6332 6331 -3.029573
6332 6332 7.040876
6333 4 -1.385671
6333 6275 -1.216214
6333 6333 5.408419
6333 6334 -2.712348
6333 6335 0.905814
6334 4 -0.294953
6334 6274 -0.045872
6334 6333 -1.838597
6334 6334 6.997304
6334 6335 -3.817883
6335 4 -2.944414
6335 6333 -0.060638
6335 6334 -3.048952
6335 6335 7.054005
6336 4 -1.282814
6336 6274 -1.216214
6336 6336 5.09029
6336 6337 -2.484334
6336 6338 0.893071
6337 4 -0.33426
6337 6275 -0.045872
6337 6336 -1.609112
6337 6337 6.769732
6337 6338 -3.780488
6338 4 -2.933822
6338 6336 -0.077481
6338 6337 -3.029573
6338 6338 7.040876
6339 4 -1.385671
6339 6275 -1.216214
6339 6339 5.408419
6339 6340 -2.712348
6339 6341 0.905814
6340 4 -0.294953
6340 6274 -0.045872
6340 6339 -1.838597
6340 6340 6.997304
6340 6341 -3.817883
6341 4 -2.944414
6341 6339 -0.060638
6341 6340 -3.048952
6341 6341 7.054005
6342 4 -1.282814
6342 6274 -1.216214
6342 6342 5.09029
6342 6343 -2.484334
6342 6344 0.893071
6343 4 -0.33426
6343 6275 -0.045872
6343 6342 -1.609112
6343 6343 6.769732
6343 6344 -3.780488
6344 4 -2.933822
6344 6342 -0.077481
6344 6343 -3.029573
6344 6344 7.040876
6345 4 -1.385671
6345 6275 -1.216214
6345 6345 5.408419
6345 6346 -2.712348
6345 6347 0.905814
6346 4 -0.294953
6346 6274 -0.045872
6346 6345 -1.838597
6346 6346 6.997304
6346 6347 -3.817883
6347 4 -2.944414
6347 6345 -0.060638
6347 6346 -3.048952
6347 6347 7.054005
6348 4 -1.282814
6348 6274 -1.216214
6348 6348 5.09029
6348 6349 -2.484334
6348 6350 0.893071
6349 4 -0.33426
6349 6275 -0.045872
6349 6348 -1.609112
6349 6349 6.769732
6349 6350 -3.780488
6350 4 -2.933822
6350 6348 -0.077481
6350 6349 -3.029573
6350 6350 7.040876
6351 4 -1.385671
6351 6275 -1.216214
6351 6351 5.408419
6351 6352 -2.712348
6351 6353 0.905814
6352 4 -0.294953
6352 6274 -0.045872
6352 6351 -1.838597
6352 6352 6.997304
6352 6353 -3.817883
6353 4 -2.944414
6353 6351 -0.060638
6353 6352 -3.048952
6353 6353 7.054005
6354 4 -1.282814
6354 6274 -1.216214
6354 6354 5.09029
6354 6355 -2.484334
6354 6356 0.893071
6355 4 -0.33426
6355 6275 -0.045872
6355 6354 -1.609112
6355 6355 6.769732
6355 6356 -3.780488
6356 4 -2.933822
6356 6354 -0.077481
6356 6355 -3.029573
6356 6356 7.040876
6357 4 -1.385671
6357 6275 -1.216214
6357 6357 5.408419
6357 6358 -2.712348
6357 6359 0.905814
6358 4 -0.294953
6358 6274 -0.045872
6358 6357 -1.838597
6358 6358 6.997304
6358 6359 -3.817883
6359 4 -2.944414
6359 6357 -0.060638
6359 6358 -3.048952
6359 6359 7.054005
6360 4 -1.282814
6360 6274 -1.216214
6360 6360 5.09029
6360 6361 -2.484334
6360 6362 0.893071
6361 4 -0.33426
6361 6275 -0.045872
6361 6360 -1.609112
6361 6361 6.769732
6361 6362 -3.780488
6362 4 -2.933822
6362 6360 -0.077481
6362 6361 -3.029573
6362 6362 7.040876
6363 4 -1.385668
6363 6275 -1.216214
6363 6363 5.408417
6363 6364 -2.712349
6363 6365 0.905814
6364 4 -0.294949
6364 6274 -0.045872
6364 6363 -1.838593
6364 6364 6.997302
6364 6365 -3.817889
6365 4 -3.58134
6365 6363 -0.06064
6365 6364 -3.048952
6365 6365 7.690932
6366 4 -1.282813
6366 6274 -1.216214
6366 6366 5.09029
6366 6367 -2.484334
6366 6368 0.893071
6367 4 -0.334259
6367 6275 -0.045872
6367 6366 -1.609113
6367 6367 6.769732
6367 6368 -3.780489
6368 4 -3.570891
6368 6366 -0.077481
6368 6367 -3.029573
6368 6368 7.677945
6369 1 -17.2055
6369 2 -19.5265
6369 4 -5.6965
6369 6 -0.0405
6369 6275 -1.522
6369 6369 68.59008
6369 6370 -2.297298
6369 6377 -2.297298
6369 6383 -2.297298
6369 6389 -2.297298
6369 6395 -2.847
6369 6783 -2.837837
6369 6789 -2.837837
6369 6795 -2.837837
6369 6801 -2.837837
6369 6808 -0.019231
6369 6814 -0.019231
6369 6820 -0.019231
6369 6826 -0.019231
6369 6832 -0.019231
6369 6838 -0.019231
6369 6844 -0.019231
6369 6850 -0.019231
6369 6856 -0.019231
6369 6862 -0.019231
6369 6868 -0.019231
6370 4 -2.933806
6370 6369 -2.297298
6370 6370 11.5023
6370 6371 -6.681601
6370 6372 1.410404
6371 2 -0.026455
6371 4 -0.436304
6371 6370 -5.902803
6371 6371 14.458184
6371 6372 -7.092623
6372 4 -6.648284
6372 6370 0.860742
6372 6371 -6.704897
6372 6372 13.492439
6373 1 -17.185
6373 2 -19.5575
6373 4 -5.6545
6373 6 -0.0345
6373 6274 -1.522
6373 6373 68.55008
6373 6374 -2.297298
6373 6380 -2.297298
6373 6386 -2.297298
6373 6392 -2.297298
6373 6399 -2.8445
6373 6786 -2.837837
6373 6792 -2.837837
6373 6798 -2.837837
6373 6804 -2.837837
6373 6811 -0.019231
6373 6817 -0.019231
6373 6823 -0.019231
6373 6829 -0.019231
6373 6835 -0.019231
6373 6841 -0.019231
6373 6847 -0.019231
6373 6853 -0.019231
6373 6859 -0.019231
6373 6865 -0.019231
6373 6871 -0.019231
6374 4 -2.239925
6374 6373 -2.297298
6374 6374 8.922712
6374 6375 -5.364396
6374 6376 1.978907
6375 2 -0.026455
6375 4 -0.628529
6375 6374 -3.506276
6375 6375 12.985285
6375 6376 -7.824025
6376 4 -6.537687
6376 6374 -0.090764
6376 6375 -6.156385
6376 6376 13.784836
6377 4 -2.933803
6377 6369 -2.297298
6377 6377 11.502262
6377 6378 -6.681585
6377 6379 1.410424
6378 2 -0.026455
6378 4 -0.436315
6378 6377 -5.902742
6378 6378 14.458164
6378 6379 -7.092652
6379 4 -5.541125
6379 6377 0.860712
6379 6378 -6.704886
6379 6379 12.385299
6380 4 -2.239936
6380 6373 -2.297298
6380 6380 8.922712
6380 6381 -5.364392
6380 6382 1.978914
6381 2 -0.026455
6381 4 -0.628526
6381 6380 -3.506281
6381 6381 12.985292
6381 6382 -7.82403
6382 4 -5.430779
6382 6380 -0.09076
6382 6381 -6.156384
6382 6382 12.677923
6383 4 -2.933803
6383 6369 -2.297298
6383 6383 11.502262
6383 6384 -6.681585
6383 6385 1.410424
6384 2 -0.026455
6384 4 -0.436315
6384 6383 -5.902742
6384 6384 14.458164
6384 6385 -7.092652
6385 4 -5.541125
6385 6383 0.860712
6385 6384 -6.704886
6385 6385 12.385299
6386 4 -2.239936
6386 6373 -2.297298
6386 6386 8.922712
6386 6387 -5.364392
6386 6388 1.978914
6387 2 -0.026455
6387 4 -0.628526
6387 6386 -3.506281
6387 6387 12.985292
6387 6388 -7.82403
6388 4 -5.430779
6388 6386 -0.09076
6388 6387 -6.156384
6388 6388 12.677923
6389 4 -2.933806
6389 6369 -2.297298
6389 6389 11.5023
6389 6390 -6.681601
6389 6391 1.410404
6390 2 -0.026455
6390 4 -0.436304
6390 6389 -5.902803
6390 6390 14.458184
6390 6391 -7.092623
6391 4 -6.648284
6391 6389 0.860742
6391 6390 -6.704897
6391 6391 13.492439
6392 4 -2.239925
6392 6373 -2.297298
6392 6392 8.922712
6392 6393 -5.364396
6392 6394 1.978907
6393 2 -0.026455
6393 4 -0.628529
6393 6392 -3.506276
6393 6393 12.985285
6393 6394 -7.824025
6394 4 -6.537687
6394 6392 -0.090764
6394 6393 -6.156385
6394 6394 13.784836
6395 1 -20.1005
6395 2 -250.3055
6395 4 -27.4455
6395 5 -0.347
6395 6 -0.454
6395 6277 -0.4625
6395 6278 -0.531
6395 6369 -2.847
6395 6395 368.2527
6395 6396 -1.754386
6395 6399 -2.304
6395 6403 -2.702703
6395 6409 -2.702703
6395 6415 -2.702703
6395 6421 -2.702703
6395 6427 -2.702703
6395 6433 -2.702703
6395 6439 -2.702703
6395 6445 -2.702703
6395 6451 -2.702703
6395 6457 -2.702703
6395 6807 -3.162165
6395 6813 -3.162165
6395 6819 -3.162165
6395 6825 -3.162165
6395 6831 -3.162165
6395 6837 -3.162165
6395 6843 -3.162165
6395 6849 -3.162165
6395 6855 -3.162165
6395 6861 -3.162165
6395 6867 -2.052634
6396 4 -4.137317
6396 6395 -1.754386
6396 6396 10.820242
6396 6397 -6.255704
6396 6398 2.327164
6397 2 -0.022523
6397 4 -0.749134
6397 6396 -4.063455
6397 6397 15.035874
6397 6398 -9.200763
6398 4 -6.348859
6398 6396 -0.119442
6398 6397 -7.232081
6398 6398 14.700381
6399 1 -17.0165
6399 2 -252.185
6399 4 -27.7895
6399 5 -0.347
6399 6 -0.4565
6399 6277 -0.4625
6399 6278 -0.531
6399 6373 -2.8445
6399 6395 -2.304
6399 6399 367.3922
6399 6400 -1.754386
6399 6406 -2.702703
6399 6412 -2.702703
6399 6418 -2.702703
6399 6424 -2.702703
6399 6430 -2.702703
6399 6436 -2.702703
6399 6442 -2.702703
6399 6448 -2.702703
6399 6454 -2.702703
6399 6460 -2.702703
6399 6810 -3.162165
6399 6816 -3.162165
6399 6822 -3.162165
6399 6828 -3.162165
6399 6834 -3.162165
6399 6840 -3.162165
6399 6846 -3.162165
6399 6852 -3.162165
6399 6858 -3.162165
6399 6864 -3.162165
6399 6870 -2.052634
6400 4 -5.890817
6400 6399 -1.754386
6400 6400 15.103737
6400 6401 -7.935696
6400 6402 1.477162
6401 2 -0.022523
6401 4 -0.475611
6401 6400 -7.394174
6401 6401 16.923578
6401 6402 -8.031271
6402 4 -6.522576
6402 6400 1.264461
6402 6401 -7.938838
6402 6402 14.196953
6403 4 -2.564595
6403 6395 -2.702703
6403 6403 10.195771
6403 6404 -6.255634
6403 6405 2.327161
6404 2 -0.022523
6404 4 -0.749147
6404 6403 -4.063381
6404 6404 15.035804
6404 6405 -9.200754
6405 4 -6.348852
6405 6403 -0.119453
6405 6404 -7.23207
6405 6405 14.700375
6406 4 -3.72219
6406 6399 -2.702703
6406 6406 13.883421
6406 6407 -7.935695
6406 6408 1.477167
6407 2 -0.022523
6407 4 -0.475612
6407 6406 -7.394161
6407 6407 16.923577
6407 6408 -8.031281
6408 4 -6.522574
6408 6406 1.264453
6408 6407 -7.938837
6408 6408 14.196959
6409 4 -2.564595
6409 6395 -2.702703
6409 6409 10.195771
6409 6410 -6.255634
6409 6411 2.327161
6410 2 -0.022523
6410 4 -0.749147
6410 6409 -4.063381
6410 6410 15.035804
6410 6411 -9.200754
6411 4 -6.348852
6411 6409 -0.119453
6411 6410 -7.23207
6411 6411 14.700375
6412 4 -3.72219
6412 6399 -2.702703
6412 6412 13.883421
6412 6413 -7.935695
6412 6414 1.477167
6413 2 -0.022523
6413 4 -0.475612
6413 6412 -7.394161
6413 6413 16.923577
6413 6414 -8.031281
6414 4 -6.522574
6414 6412 1.264453
6414 6413 -7.938837
6414 6414 14.196959
6415 4 -2.564595
6415 6395 -2.702703
6415 6415 10.195771
6415 6416 -6.255634
6415 6417 2.327161
6416 2 -0.022523
6416 4 -0.749147
6416 6415 -4.063381
6416 6416 15.035804
6416 6417 -9.200754
6417 4 -6.348852
6417 6415 -0.119453
6417 6416 -7.23207
6417 6417 14.700375
6418 4 -3.72219
6418 6399 -2.702703
6418 6418 13.883421
6418 6419 -7.935695
6418 6420 1.477167
6419 2 -0.022523
6419 4 -0.475612
6419 6418 -7.394161
6419 6419 16.923577
6419 6420 -8.031281
6420 4 -6.522574
6420 6418 1.264453
6420 6419 -7.938837
6420 6420 14.196959
6421 4 -2.564595
6421 6395 -2.702703
6421 6421 10.195771
6421 6422 -6.255634
6421 6423 2.327161
6422 2 -0.022523
6422 4 -0.749147
6422 6421 -4.063381
6422 6422 15.035804
6422 6423 -9.200754
6423 4 -6.348852
6423 6421 -0.119453
6423 6422 -7.23207
6423 6423 14.700375
6424 4 -3.72219
6424 6399 -2.702703
6424 6424 13.883421
6424 6425 -7.935695
6424 6426 1.477167
6425 2 -0.022523
6425 4 -0.475612
6425 6424 -7.394161
6425 6425 16.923577
6425 6426 -8.031281
6426 4 -6.522574
6426 6424 1.264453
6426 6425 -7.938837
6426 6426 14.196959
6427 4 -2.564595
6427 6395 -2.702703
6427 6427 10.195771
6427 6428 -6.255634
6427 6429 2.327161
6428 2 -0.022523
6428 4 -0.749147
6428 6427 -4.063381
6428 6428 15.035804
6428 6429 -9.200754
6429 4 -6.348852
6429 6427 -0.119453
6429 6428 -7.23207
6429 6429 14.700375
6430 4 -3.72219
6430 6399 -2.702703
6430 6430 13.883421
6430 6431 -7.935695
6430 6432 1.477167
6431 2 -0.022523
6431 4 -0.475612
6431 6430 -7.394161
6431 6431 16.923577
6431 6432 -8.031281
6432 4 -6.522574
6432 6430 1.264453
6432 6431 -7.938837
6432 6432 14.196959
6433 4 -2.564595
6433 6395 -2.702703
6433 6433 10.195771
6433 6434 -6.255634
6433 6435 2.327161
6434 2 -0.022523
6434 4 -0.749147
6434 6433 -4.063381
6434 6434 15.035804
6434 6435 -9.200754
6435 4 -6.348852
6435 6433 -0.119453
6435 6434 -7.23207
6435 6435 14.700375
6436 4 -3.72219
6436 6399 -2.702703
6436 6436 13.883421
6436 6437 -7.935695
6436 6438 1.477167
6437 2 -0.022523
6437 4 -0.475612
6437 6436 -7.394161
6437 6437 16.923577
6437 6438 -8.031281
6438 4 -6.522574
6438 6436 1.264453
6438 6437 -7.938837
6438 6438 14.196959
6439 4 -2.564595
6439 6395 -2.702703
6439 6439 10.195771
6439 6440 -6.255634
6439 6441 2.327161
6440 2 -0.022523
6440 4 -0.749147
6440 6439 -4.063381
6440 6440 15.035804
6440 6441 -9.200754
6441 4 -6.348852
6441 6439 -0.119453
6441 6440 -7.23207
6441 6441 14.700375
6442 4 -3.72219
6442 6399 -2.702703
6442 6442 13.883421
6442 6443 -7.935695
6442 6444 1.477167
6443 2 -0.022523
6443 4 -0.475612
6443 6442 -7.394161
6443 6443 16.923577
6443 6444 -8.031281
6444 4 -6.522574
6444 6442 1.264453
6444 6443 -7.938837
6444 6444 14.196959
6445 4 -2.564595
6445 6395 -2.702703
6445 6445 10.195771
6445 6446 -6.255634
6445 6447 2.327161
6446 2 -0.022523
6446 4 -0.749147
6446 6445 -4.063381
6446 6446 15.035804
6446 6447 -9.200754
6447 4 -6.348852
6447 6445 -0.119453
6447 6446 -7.23207
6447 6447 14.700375
6448 4 -3.72219
6448 6399 -2.702703
6448 6448 13.883421
6448 6449 -7.935695
6448 6450 1.477167
6449 2 -0.022523
6449 4 -0.475612
6449 6448 -7.394161
6449 6449 16.923577
6449 6450 -8.031281
6450 4 -6.522574
6450 6448 1.264453
6450 6449 -7.938837
6450 6450 14.196959
6451 4 -2.564595
6451 6395 -2.702703
6451 6451 10.195771
6451 6452 -6.255634
6451 6453 2.327161
6452 2 -0.022523
6452 4 -0.749147
6452 6451 -4.063381
6452 6452 15.035804
6452 6453 -9.200754
6453 4 -6.348852
6453 6451 -0.119453
6453 6452 -7.23207
6453 6453 14.700375
6454 4 -3.72219
6454 6399 -2.702703
6454 6454 13.883421
6454 6455 -7.935695
6454 6456 1.477167
6455 2 -0.022523
6455 4 -0.475612
6455 6454 -7.394161
6455 6455 16.923577
6455 6456 -8.031281
6456 4 -6.522574
6456 6454 1.264453
6456 6455 -7.938837
6456 6456 14.196959
6457 4 -2.564581
6457 6395 -2.702703
6457 6457 10.195768
6457 6458 -6.255636
6457 6459 2.327152
6458 2 -0.022523
6458 4 -0.749151
6458 6457 -4.063372
6458 6458 15.035792
6458 6459 -9.200746
6459 4 -7.632032
6459 6457 -0.119459
6459 6458 -7.232071
6459 6459 15.983562
6460 4 -3.72219
6460 6399 -2.702703
6460 6460 13.88343
6460 6461 -7.935697
6460 6462 1.477159
6461 2 -0.022523
6461 4 -0.475608
6461 6460 -7.394179
6461 6461 16.923579
6461 6462 -8.031269
6462 4 -7.806202
6462 6460 1.264463
6462 6461 -7.938839
6462 6462 15.480578
6463 1 -15.837
6463 2 -74.9745
6463 4 -1.555
6463 6 -11.935
6463 6274 -0.4245
6463 6275 -2.832
6463 6463 296.098563
6463 6464 -4.054065
6463 6467 -0.03
6463 6471 -4.054065
6463 6477 -4.054065
6463 6483 -4.054065
6463 6489 -4.054065
6463 6495 -4.054065
6463 6501 -4.054065
6463 6507 -4.054065
6463 6513 -4.054065
6463 6519 -4.054065
6463 6525 -4.054065
6463 6531 -4.054065
6463 6537 -4.054065
6463 6543 -4.054065
6463 6549 -4.054065
6463 6555 -4.054065
6463 6561 -4.054065
6463 6567 -4.054065
6463 6573 -4.054065
6463 6579 -4.054065
6463 6585 -4.054065
6463 6591 -4.054065
6463 6597 -4.054065
6463 6603 -4.054065
6463 6609 -4.054065
6463 6615 -4.054065
6463 6621 -4.054065
6463 6627 -4.054065
6463 6633 -4.054065
6463 6639 -4.054065
6463 6645 -4.054065
6463 6651 -4.054065
6463 6657 -4.054065
6463 6663 -4.054065
6463 6669 -4.054065
6463 6675 -4.054065
6463 6681 -4.054065
6463 6687 -4.054065
6463 6693 -4.054065
6463 6699 -4.054065
6463 6705 -4.054065
6463 6711 -4.054065
6463 6717 -4.054065
6463 6723 -4.054065
6463 6729 -2.674898
6463 6737 -0.802472
6463 6743 -1.216214
6463 6749 -1.216214
6463 6755 -1.216214
6463 6761 -1.216214
6463 6767 -0.789478
6464 2 -4.563614
6464 6463 -4.054065
6464 6464 18.69105
6464 6465 -11.215153
6464 6466 2.141782
6465 2 -0.550237
6465 6 -0.013755
6465 6464 -10.356981
6465 6465 23.516824
6465 6466 -11.595851
6466 2 -10.148379
6466 6464 1.370636
6466 6465 -11.216446
6466 6466 20.99419
6467 1 -15.7255
6467 2 -75.113
6467 4 -1.5575
6467 6 -11.9355
6467 6274 -2.8285
6467 6275 -0.4245
6467 6463 -0.03
6467 6467 296.125063
6467 6468 -4.054065
6467 6474 -4.054065
6467 6480 -4.054065
6467 6486 -4.054065
6467 6492 -4.054065
6467 6498 -4.054065
6467 6504 -4.054065
6467 6510 -4.054065
6467 6516 -4.054065
6467 6522 -4.054065
6467 6528 -4.054065
6467 6534 -4.054065
6467 6540 -4.054065
6467 6546 -4.054065
6467 6552 -4.054065
6467 6558 -4.054065
6467 6564 -4.054065
6467 6570 -4.054065
6467 6576 -4.054065
6467 6582 -4.054065
6467 6588 -4.054065
6467 6594 -4.054065
6467 6600 -4.054065
6467 6606 -4.054065
6467 6612 -4.054065
6467 6618 -4.054065
6467 6624 -4.054065
6467 6630 -4.054065
6467 6636 -4.054065
6467 6642 -4.054065
6467 6648 -4.054065
6467 6654 -4.054065
6467 6660 -4.054065
6467 6666 -4.054065
6467 6672 -4.054065
6467 6678 -4.054065
6467 6684 -4.054065
6467 6690 -4.054065
6467 6696 -4.054065
6467 6702 -4.054065
6467 6708 -4.054065
6467 6714 -4.054065
6467 6720 -4.054065
6467 6726 -4.054065
6467 6732 -2.674898
6467 6740 -0.802472
6467 6746 -1.216214
6467 6752 -1.216214
6467 6758 -1.216214
6467 6764 -1.216214
6467 6770 -0.789478
6468 2 -4.549967
6468 6467 -4.054065
6468 6468 18.652204
6468 6469 -11.209597
6468 6470 2.161424
6469 2 -0.551153
6469 6 -0.013755
6469 6468 -10.313169
6469 6469 23.508969
6469 6470 -11.630891
6470 2 -10.147856
6470 6468 1.349727
6470 6469 -11.213682
6470 6470 21.011811
6471 2 -4.563615
6471 6463 -4.054065
6471 6471 18.691047
6471 6472 -11.215152
6471 6473 2.141785
6472 2 -0.550237
6472 6 -0.013755
6472 6471 -10.356975
6472 6472 23.516823
6472 6473 -11.595856
6473 2 -8.624073
6473 6471 1.370633
6473 6472 -11.216445
6473 6473 19.469885
6474 2 -4.549967
6474 6467 -4.054065
6474 6474 18.652195
6474 6475 -11.209594
6474 6476 2.161432
6475 2 -0.551154
6475 6 -0.013755
6475 6474 -10.313152
6475 6475 23.508965
6475 6476 -11.630903
6476 2 -8.623561
6476 6474 1.349718
6476 6475 -11.21368
6476 6476 19.487523
6477 2 -4.563615
6477 6463 -4.054065
6477 6477 18.691047
6477 6478 -11.215152
6477 6479 2.141785
6478 2 -0.550237
6478 6 -0.013755
6478 6477 -10.356975
6478 6478 23.516823
6478 6479 -11.595856
6479 2 -8.624073
6479 6477 1.370633
6479 6478 -11.216445
6479 6479 19.469885
6480 2 -4.549967
6480 6467 -4.054065
6480 6480 18.652195
6480 6481 -11.209594
6480 6482 2.161432
6481 2 -0.551154
6481 6 -0.013755
6481 6480 -10.313152
6481 6481 23.508965
6481 6482 -11.630903
6482 2 -8.623561
6482 6480 1.349718
6482 6481 -11.21368
6482 6482 19.487523
6483 2 -4.563615
6483 6463 -4.054065
6483 6483 18.691047
6483 6484 -11.215152
6483 6485 2.141785
6484 2 -0.550237
6484 6 -0.013755
6484 6483 -10.356975
6484 6484 23.516823
6484 6485 -11.595856
6485 2 -8.624073
6485 6483 1.370633
6485 6484 -11.216445
6485 6485 19.469885
6486 2 -4.549967
6486 6467 -4.054065
6486 6486 18.652195
6486 6487 -11.209594
6486 6488 2.161432
6487 2 -0.551154
6487 6 -0.013755
6487 6486 -10.313152
6487 6487 23.508965
6487 6488 -11.630903
6488 2 -8.623561
6488 6486 1.349718
6488 6487 -11.21368
6488 6488 19.487523
6489 2 -4.563615
6489 6463 -4.054065
6489 6489 18.691047
6489 6490 -11.215152
6489 6491 2.141785
6490 2 -0.550237
6490 6 -0.013755
6490 6489 -10.356975
6490 6490 23.516823
6490 6491 -11.595856
6491 2 -8.624073
6491 6489 1.370633
6491 6490 -11.216445
6491 6491 19.469885
6492 2 -4.549967
6492 6467 -4.054065
6492 6492 18.652195
6492 6493 -11.209594
6492 6494 2.161432
6493 2 -0.551154
6493 6 -0.013755
6493 6492 -10.313152
6493 6493 23.508965
6493 6494 -11.630903
6494 2 -8.623561
6494 6492 1.349718
6494 6493 -11.21368
6494 6494 19.487523
6495 2 -4.563615
6495 6463 -4.054065
6495 6495 18.691047
6495 6496 -11.215152
6495 6497 2.141785
6496 2 -0.550237
6496 6 -0.013755
6496 6495 -10.356975
6496 6496 23.516823
6496 6497 -11.595856
6497 2 -8.624073
6497 6495 1.370633
6497 6496 -11.216445
6497 6497 19.469885
6498 2 -4.549967
6498 6467 -4.054065
6498 6498 18.652195
6498 6499 -11.209594
6498 6500 2.161432
6499 2 -0.551154
6499 6 -0.013755
6499 6498 -10.313152
6499 6499 23.508965
6499 6500 -11.630903
6500 2 -8.623561
6500 6498 1.349718
6500 6499 -11.21368
6500 6500 19.487523
6501 2 -4.563615
6501 6463 -4.054065
6501 6501 18.691047
6501 6502 -11.215152
6501 6503 2.141785
6502 2 -0.550237
6502 6 -0.013755
6502 6501 -10.356975
6502 6502 23.516823
6502 6503 -11.595856
6503 2 -8.624073
6503 6501 1.370633
6503 6502 -11.216445
6503 6503 19.469885
6504 2 -4.549967
6504 6467 -4.054065
6504 6504 18.652195
6504 6505 -11.209594
6504 6506 2.161432
6505 2 -0.551154
6505 6 -0.013755
6505 6504 -10.313152
6505 6505 23.508965
6505 6506 -11.630903
6506 2 -8.623561
6506 6504 1.349718
6506 6505 -11.21368
6506 6506 19.487523
6507 2 -4.563615
6507 6463 -4.054065
6507 6507 18.691047
6507 6508 -11.215152
6507 6509 2.141785
6508 2 -0.550237
6508 6 -0.013755
6508 6507 -10.356975
6508 6508 23.516823
6508 6509 -11.595856
6509 2 -8.624073
6509 6507 1.370633
6509 6508 -11.216445
6509 6509 19.469885
6510 2 -4.549967
6510 6467 -4.054065
6510 6510 18.652195
6510 6511 -11.209594
6510 6512 2.161432
6511 2 -0.551154
6511 6 -0.013755
6511 6510 -10.313152
6511 6511 23.508965
6511 6512 -11.630903
6512 2 -8.623561
6512 6510 1.349718
6512 6511 -11.21368
6512 6512 19.487523
6513 2 -4.563615
6513 6463 -4.054065
6513 6513 18.691047
6513 6514 -11.215152
6513 6515 2.141785
6514 2 -0.550237
6514 6 -0.013755
6514 6513 -10.356975
6514 6514 23.516823
6514 6515 -11.595856
6515 2 -8.624073
6515 6513 1.370633
6515 6514 -11.216445
6515 6515 19.469885
6516 2 -4.549967
6516 6467 -4.054065
6516 6516 18.652195
6516 6517 -11.209594
6516 6518 2.161432
6517 2 -0.551154
6517 6 -0.013755
6517 6516 -10.313152
6517 6517 23.508965
6517 6518 -11.630903
6518 2 -8.623561
6518 6516 1.349718
6518 6517 -11.21368
6518 6518 19.487523
6519 2 -4.563615
6519 6463 -4.054065
6519 6519 18.691047
6519 6520 -11.215152
6519 6521 2.141785
6520 2 -0.550237
6520 6 -0.013755
6520 6519 -10.356975
6520 6520 23.516823
6520 6521 -11.595856
6521 2 -8.624073
6521 6519 1.370633
6521 6520 -11.216445
6521 6521 19.469885
6522 2 -4.549967
6522 6467 -4.054065
6522 6522 18.652195
6522 6523 -11.209594
6522 6524 2.161432
6523 2 -0.551154
6523 6 -0.013755
6523 6522 -10.313152
6523 6523 23.508965
6523 6524 -11.630903
6524 2 -8.623561
6524 6522 1.349718
6524 6523 -11.21368
6524 6524 19.487523
6525 2 -4.563615
6525 6463 -4.054065
6525 6525 18.691047
6525 6526 -11.215152
6525 6527 2.141785
6526 2 -0.550237
6526 6 -0.013755
6526 6525 -10.356975
6526 6526 23.516823
6526 6527 -11.595856
6527 2 -8.624073
6527 6525 1.370633
6527 6526 -11.216445
6527 6527 19.469885
6528 2 -4.549967
6528 6467 -4.054065
6528 6528 18.652195
6528 6529 -11.209594
6528 6530 2.161432
6529 2 -0.551154
6529 6 -0.013755
6529 6528 -10.313152
6529 6529 23.508965
6529 6530 -11.630903
6530 2 -8.623561
6530 6528 1.349718
6530 6529 -11.21368
6530 6530 19.487523
6531 2 -4.563615
6531 6463 -4.054065
6531 6531 18.691047
6531 6532 -11.215152
6531 6533 2.141785
6532 2 -0.550237
6532 6 -0.013755
6532 6531 -10.356975
6532 6532 23.516823
6532 6533 -11.595856
6533 2 -8.624073
6533 6531 1.370633
6533 6532 -11.216445
6533 6533 19.469885
6534 2 -4.549967
6534 6467 -4.054065
6534 6534 18.652195
6534 6535 -11.209594
6534 6536 2.161432
6535 2 -0.551154
6535 6 -0.013755
6535 6534 -10.313152
6535 6535 23.508965
6535 6536 -11.630903
6536 2 -8.623561
6536 6534 1.349718
6536 6535 -11.21368
6536 6536 19.487523
6537 2 -4.563615
6537 6463 -4.054065
6537 6537 18.691047
6537 6538 -11.215152
6537 6539 2.141785
6538 2 -0.550237
6538 6 -0.013755
6538 6537 -10.356975
6538 6538 23.516823
6538 6539 -11.595856
6539 2 -8.624073
6539 6537 1.370633
6539 6538 -11.216445
6539 6539 19.469885
6540 2 -4.549967
6540 6467 -4.054065
6540 6540 18.652195
6540 6541 -11.209594
6540 6542 2.161432
6541 2 -0.551154
6541 6 -0.013755
6541 6540 -10.313152
6541 6541 23.508965
6541 6542 -11.630903
6542 2 -8.623561
6542 6540 1.349718
6542 6541 -11.21368
6542 6542 19.487523
6543 2 -4.563615
6543 6463 -4.054065
6543 6543 18.691047
6543 6544 -11.215152
6543 6545 2.141785
6544 2 -0.550237
6544 6 -0.013755
6544 6543 -10.356975
6544 6544 23.516823
6544 6545 -11.595856
6545 2 -8.624073
6545 6543 1.370633
6545 6544 -11.216445
6545 6545 19.469885
6546 2 -4.549967
6546 6467 -4.054065
6546 6546 18.652195
6546 6547 -11.209594
6546 6548 2.161432
6547 2 -0.551154
6547 6 -0.013755
6547 6546 -10.313152
6547 6547 23.508965
6547 6548 -11.630903
6548 2 -8.623561
6548 6546 1.349718
6548 6547 -11.21368
6548 6548 19.487523
6549 2 -4.563615
6549 6463 -4.054065
6549 6549 18.691047
6549 6550 -11.215152
6549 6551 2.141785
6550 2 -0.550237
6550 6 -0.013755
6550 6549 -10.356975
6550 6550 23.516823
6550 6551 -11.595856
6551 2 -8.624073
6551 6549 1.370633
6551 6550 -11.216445
6551 6551 19.469885
6552 2 -4.549967
6552 6467 -4.054065
6552 6552 18.652195
6552 6553 -11.209594
6552 6554 2.161432
6553 2 -0.551154
6553 6 -0.013755
6553 6552 -10.313152
6553 6553 23.508965
6553 6554 -11.630903
6554 2 -8.623561
6554 6552 1.349718
6554 6553 -11.21368
6554 6554 19.487523
6555 2 -4.563615
6555 6463 -4.054065
6555 6555 18.691047
6555 6556 -11.215152
6555 6557 2.141785
6556 2 -0.550237
6556 6 -0.013755
6556 6555 -10.356975
6556 6556 23.516823
6556 6557 -11.595856
6557 2 -8.624073
6557 6555 1.370633
6557 6556 -11.216445
6557 6557 19.469885
6558 2 -4.549967
6558 6467 -4.054065
6558 6558 18.652195
6558 6559 -11.209594
6558 6560 2.161432
6559 2 -0.551154
6559 6 -0.013755
6559 6558 -10.313152
6559 6559 23.508965
6559 6560 -11.630903
6560 2 -8.623561
6560 6558 1.349718
6560 6559 -11.21368
6560 6560 19.487523
6561 2 -4.563615
6561 6463 -4.054065
6561 6561 18.691047
6561 6562 -11.215152
6561 6563 2.141785
6562 2 -0.550237
6562 6 -0.013755
6562 6561 -10.356975
6562 6562 23.516823
6562 6563 -11.595856
6563 2 -8.624073
6563 6561 1.370633
6563 6562 -11.216445
6563 6563 19.469885
6564 2 -4.549967
6564 6467 -4.054065
6564 6564 18.652195
6564 6565 -11.209594
6564 6566 2.161432
6565 2 -0.551154
6565 6 -0.013755
6565 6564 -10.313152
6565 6565 23.508965
6565 6566 -11.630903
6566 2 -8.623561
6566 6564 1.349718
6566 6565 -11.21368
6566 6566 19.487523
6567 2 -4.563615
6567 6463 -4.054065
6567 6567 18.691047
6567 6568 -11.215152
6567 6569 2.141785
6568 2 -0.550237
6568 6 -0.013755
6568 6567 -10.356975
6568 6568 23.516823
6568 6569 -11.595856
6569 2 -8.624073
6569 6567 1.370633
6569 6568 -11.216445
6569 6569 19.469885
6570 2 -4.549967
6570 6467 -4.054065
6570 6570 18.652195
6570 6571 -11.209594
6570 6572 2.161432
6571 2 -0.551154
6571 6 -0.013755
6571 6570 -10.313152
6571 6571 23.508965
6571 6572 -11.630903
6572 2 -8.623561
6572 6570 1.349718
6572 6571 -11.21368
6572 6572 19.487523
6573 2 -4.563615
6573 6463 -4.054065
6573 6573 18.691047
6573 6574 -11.215152
6573 6575 2.141785
6574 2 -0.550237
6574 6 -0.013755
6574 6573 -10.356975
6574 6574 23.516823
6574 6575 -11.595856
6575 2 -8.624073
6575 6573 1.370633
6575 6574 -11.216445
6575 6575 19.469885
6576 2 -4.549967
6576 6467 -4.054065
6576 6576 18.652195
6576 6577 -11.209594
6576 6578 2.161432
6577 2 -0.551154
6577 6 -0.013755
6577 6576 -10.313152
6577 6577 23.508965
6577 6578 -11.630903
6578 2 -8.623561
6578 6576 1.349718
6578 6577 -11.21368
6578 6578 19.487523
6579 2 -4.563615
6579 6463 -4.054065
6579 6579 18.691047
6579 6580 -11.215152
6579 6581 2.141785
6580 2 -0.550237
6580 6 -0.013755
6580 6579 -10.356975
6580 6580 23.516823
6580 6581 -11.595856
6581 2 -8.624073
6581 6579 1.370633
6581 6580 -11.216445
6581 6581 19.469885
6582 2 -4.549967
6582 6467 -4.054065
6582 6582 18.652195
6582 6583 -11.209594
6582 6584 2.161432
6583 2 -0.551154
6583 6 -0.013755
6583 6582 -10.313152
6583 6583 23.508965
6583 6584 -11.630903
6584 2 -8.623561
6584 6582 1.349718
6584 6583 -11.21368
6584 6584 19.487523
6585 2 -4.563615
6585 6463 -4.054065
6585 6585 18.691047
6585 6586 -11.215152
6585 6587 2.141785
6586 2 -0.550237
6586 6 -0.013755
6586 6585 -10.356975
6586 6586 23.516823
6586 6587 -11.595856
6587 2 -8.624073
6587 6585 1.370633
6587 6586 -11.216445
6587 6587 19.469885
6588 2 -4.549967
6588 6467 -4.054065
6588 6588 18.652195
6588 6589 -11.209594
6588 6590 2.161432
6589 2 -0.551154
6589 6 -0.013755
6589 6588 -10.313152
6589 6589 23.508965
6589 6590 -11.630903
6590 2 -8.623561
6590 6588 1.349718
6590 6589 -11.21368
6590 6590 19.487523
6591 2 -4.563615
6591 6463 -4.054065
6591 6591 18.691047
6591 6592 -11.215152
6591 6593 2.141785
6592 2 -0.550237
6592 6 -0.013755
6592 6591 -10.356975
6592 6592 23.516823
6592 6593 -11.595856
6593 2 -8.624073
6593 6591 1.370633
6593 6592 -11.216445
6593 6593 19.469885
6594 2 -4.549967
6594 6467 -4.054065
6594 6594 18.652195
6594 6595 -11.209594
6594 6596 2.161432
6595 2 -0.551154
6595 6 -0.013755
6595 6594 -10.313152
6595 6595 23.508965
6595 6596 -11.630903
6596 2 -8.623561
6596 6594 1.349718
6596 6595 -11.21368
6596 6596 19.487523
6597 2 -4.563615
6597 6463 -4.054065
6597 6597 18.691047
6597 6598 -11.215152
6597 6599 2.141785
6598 2 -0.550237
6598 6 -0.013755
6598 6597 -10.356975
6598 6598 23.516823
6598 6599 -11.595856
6599 2 -8.624073
6599 6597 1.370633
6599 6598 -11.216445
6599 6599 19.469885
6600 2 -4.549967
6600 6467 -4.054065
6600 6600 18.652195
6600 6601 -11.209594
6600 6602 2.161432
6601 2 -0.551154
6601 6 -0.013755
6601 6600 -10.313152
6601 6601 23.508965
6601 6602 -11.630903
6602 2 -8.623561
6602 6600 1.349718
6602 6601 -11.21368
6602 6602 19.487523
6603 2 -4.563615
6603 6463 -4.054065
6603 6603 18.691047
6603 6604 -11.215152
6603 6605 2.141785
6604 2 -0.550237
6604 6 -0.013755
6604 6603 -10.356975
6604 6604 23.516823
6604 6605 -11.595856
6605 2 -8.624073
6605 6603 1.370633
6605 6604 -11.216445
6605 6605 19.469885
6606 2 -4.549967
6606 6467 -4.054065
6606 6606 18.652195
6606 6607 -11.209594
6606 6608 2.161432
6607 2 -0.551154
6607 6 -0.013755
6607 6606 -10.313152
6607 6607 23.508965
6607 6608 -11.630903
6608 2 -8.623561
6608 6606 1.349718
6608 6607 -11.21368
6608 6608 19.487523
6609 2 -4.563615
6609 6463 -4.054065
6609 6609 18.691047
6609 6610 -11.215152
6609 6611 2.141785
6610 2 -0.550237
6610 6 -0.013755
6610 6609 -10.356975
6610 6610 23.516823
6610 6611 -11.595856
6611 2 -8.624073
6611 6609 1.370633
6611 6610 -11.216445
6611 6611 19.469885
6612 2 -4.549967
6612 6467 -4.054065
6612 6612 18.652195
6612 6613 -11.209594
6612 6614 2.161432
6613 2 -0.551154
6613 6 -0.013755
6613 6612 -10.313152
6613 6613 23.508965
6613 6614 -11.630903
6614 2 -8.623561
6614 6612 1.349718
6614 6613 -11.21368
6614 6614 19.487523
6615 2 -4.563615
6615 6463 -4.054065
6615 6615 18.691047
6615 6616 -11.215152
6615 6617 2.141785
6616 2 -0.550237
6616 6 -0.013755
6616 6615 -10.356975
6616 6616 23.516823
6616 6617 -11.595856
6617 2 -8.624073
6617 6615 1.370633
6617 6616 -11.216445
6617 6617 19.469885
6618 2 -4.549967
6618 6467 -4.054065
6618 6618 18.652195
6618 6619 -11.209594
6618 6620 2.161432
6619 2 -0.551154
6619 6 -0.013755
6619 6618 -10.313152
6619 6619 23.508965
6619 6620 -11.630903
6620 2 -8.623561
6620 6618 1.349718
6620 6619 -11.21368
6620 6620 19.487523
6621 2 -4.563615
6621 6463 -4.054065
6621 6621 18.691047
6621 6622 -11.215152
6621 6623 2.141785
6622 2 -0.550237
6622 6 -0.013755
6622 6621 -10.356975
6622 6622 23.516823
6622 6623 -11.595856
6623 2 -8.624073
6623 6621 1.370633
6623 6622 -11.216445
6623 6623 19.469885
6624 2 -4.549967
6624 6467 -4.054065
6624 6624 18.652195
6624 6625 -11.209594
6624 6626 2.161432
6625 2 -0.551154
6625 6 -0.013755
6625 6624 -10.313152
6625 6625 23.508965
6625 6626 -11.630903
6626 2 -8.623561
6626 6624 1.349718
6626 6625 -11.21368
6626 6626 19.487523
6627 2 -4.563615
6627 6463 -4.054065
6627 6627 18.691047
6627 6628 -11.215152
6627 6629 2.141785
6628 2 -0.550237
6628 6 -0.013755
6628 6627 -10.356975
6628 6628 23.516823
6628 6629 -11.595856
6629 2 -8.624073
6629 6627 1.370633
6629 6628 -11.216445
6629 6629 19.469885
6630 2 -4.549967
6630 6467 -4.054065
6630 6630 18.652195
6630 6631 -11.209594
6630 6632 2.161432
6631 2 -0.551154
6631 6 -0.013755
6631 6630 -10.313152
6631 6631 23.508965
6631 6632 -11.630903
6632 2 -8.623561
6632 6630 1.349718
6632 6631 -11.21368
6632 6632 19.487523
6633 2 -4.563615
6633 6463 -4.054065
6633 6633 18.691047
6633 6634 -11.215152
6633 6635 2.141785
6634 2 -0.550237
6634 6 -0.013755
6634 6633 -10.356975
6634 6634 23.516823
6634 6635 -11.595856
6635 2 -8.624073
6635 6633 1.370633
6635 6634 -11.216445
6635 6635 19.469885
6636 2 -4.549967
6636 6467 -4.054065
6636 6636 18.652195
6636 6637 -11.209594
6636 6638 2.161432
6637 2 -0.551154
6637 6 -0.013755
6637 6636 -10.313152
6637 6637 23.508965
6637 6638 -11.630903
6638 2 -8.623561
6638 6636 1.349718
6638 6637 -11.21368
6638 6638 19.487523
6639 2 -4.563615
6639 6463 -4.054065
6639 6639 18.691047
6639 6640 -11.215152
6639 6641 2.141785
6640 2 -0.550237
6640 6 -0.013755
6640 6639 -10.356975
6640 6640 23.516823
6640 6641 -11.595856
6641 2 -8.624073
6641 6639 1.370633
6641 6640 -11.216445
6641 6641 19.469885
6642 2 -4.549967
6642 6467 -4.054065
6642 6642 18.652195
6642 6643 -11.209594
6642 6644 2.161432
6643 2 -0.551154
6643 6 -0.013755
6643 6642 -10.313152
6643 6643 23.508965
6643 6644 -11.630903
6644 2 -8.623561
6644 6642 1.349718
6644 6643 -11.21368
6644 6644 19.487523
6645 2 -4.563615
6645 6463 -4.054065
6645 6645 18.691047
6645 6646 -11.215152
6645 6647 2.141785
6646 2 -0.550237
6646 6 -0.013755
6646 6645 -10.356975
6646 6646 23.516823
6646 6647 -11.595856
6647 2 -8.624073
6647 6645 1.370633
6647 6646 -11.216445
6647 6647 19.469885
6648 2 -4.549967
6648 6467 -4.054065
6648 6648 18.652195
6648 6649 -11.209594
6648 6650 2.161432
6649 2 -0.551154
6649 6 -0.013755
6649 6648 -10.313152
6649 6649 23.508965
6649 6650 -11.630903
6650 2 -8.623561
6650 6648 1.349718
6650 6649 -11.21368
6650 6650 19.487523
6651 2 -4.563615
6651 6463 -4.054065
6651 6651 18.691047
6651 6652 -11.215152
6651 6653 2.141785
6652 2 -0.550237
6652 6 -0.013755
6652 6651 -10.356975
6652 6652 23.516823
6652 6653 -11.595856
6653 2 -8.624073
6653 6651 1.370633
6653 6652 -11.216445
6653 6653 19.469885
6654 2 -4.549967
6654 6467 -4.054065
6654 6654 18.652195
6654 6655 -11.209594
6654 6656 2.161432
6655 2 -0.551154
6655 6 -0.013755
6655 6654 -10.313152
6655 6655 23.508965
6655 6656 -11.630903
6656 2 -8.623561
6656 6654 1.349718
6656 6655 -11.21368
6656 6656 19.487523
6657 2 -4.563615
6657 6463 -4.054065
6657 6657 18.691047
6657 6658 -11.215152
6657 6659 2.141785
6658 2 -0.550237
6658 6 -0.013755
6658 6657 -10.356975
6658 6658 23.516823
6658 6659 -11.595856
6659 2 -8.624073
6659 6657 1.370633
6659 6658 -11.216445
6659 6659 19.469885
6660 2 -4.549967
6660 6467 -4.054065
6660 6660 18.652195
6660 6661 -11.209594
6660 6662 2.161432
6661 2 -0.551154
6661 6 -0.013755
6661 6660 -10.313152
6661 6661 23.508965
6661 6662 -11.630903
6662 2 -8.623561
6662 6660 1.349718
6662 6661 -11.21368
6662 6662 19.487523
6663 2 -4.563615
6663 6463 -4.054065
6663 6663 18.691047
6663 6664 -11.215152
6663 6665 2.141785
6664 2 -0.550237
6664 6 -0.013755
6664 6663 -10.356975
6664 6664 23.516823
6664 6665 -11.595856
6665 2 -8.624073
6665 6663 1.370633
6665 6664 -11.216445
6665 6665 19.469885
6666 2 -4.549967
6666 6467 -4.054065
6666 6666 18.652195
6666 6667 -11.209594
6666 6668 2.161432
6667 2 -0.551154
6667 6 -0.013755
6667 6666 -10.313152
6667 6667 23.508965
6667 6668 -11.630903
6668 2 -8.623561
6668 6666 1.349718
6668 6667 -11.21368
6668 6668 19.487523
6669 2 -4.563615
6669 6463 -4.054065
6669 6669 18.691047
6669 6670 -11.215152
6669 6671 2.141785
6670 2 -0.550237
6670 6 -0.013755
6670 6669 -10.356975
6670 6670 23.516823
6670 6671 -11.595856
6671 2 -8.624073
6671 6669 1.370633
6671 6670 -11.216445
6671 6671 19.469885
6672 2 -4.549967
6672 6467 -4.054065
6672 6672 18.652195
6672 6673 -11.209594
6672 6674 2.161432
6673 2 -0.551154
6673 6 -0.013755
6673 6672 -10.313152
6673 6673 23.508965
6673 6674 -11.630903
6674 2 -8.623561
6674 6672 1.349718
6674 6673 -11.21368
6674 6674 19.487523
6675 2 -4.563615
6675 6463 -4.054065
6675 6675 18.691047
6675 6676 -11.215152
6675 6677 2.141785
6676 2 -0.550237
6676 6 -0.013755
6676 6675 -10.356975
6676 6676 23.516823
6676 6677 -11.595856
6677 2 -8.624073
6677 6675 1.370633
6677 6676 -11.216445
6677 6677 19.469885
6678 2 -4.549967
6678 6467 -4.054065
6678 6678 18.652195
6678 6679 -11.209594
6678 6680 2.161432
6679 2 -0.551154
6679 6 -0.013755
6679 6678 -10.313152
6679 6679 23.508965
6679 6680 -11.630903
6680 2 -8.623561
6680 6678 1.349718
6680 6679 -11.21368
6680 6680 19.487523
6681 2 -4.563615
6681 6463 -4.054065
6681 6681 18.691047
6681 6682 -11.215152
6681 6683 2.141785
6682 2 -0.550237
6682 6 -0.013755
6682 6681 -10.356975
6682 6682 23.516823
6682 6683 -11.595856
6683 2 -8.624073
6683 6681 1.370633
6683 6682 -11.216445
6683 6683 19.469885
6684 2 -4.549967
6684 6467 -4.054065
6684 6684 18.652195
6684 6685 -11.209594
6684 6686 2.161432
6685 2 -0.551154
6685 6 -0.013755
6685 6684 -10.313152
6685 6685 23.508965
6685 6686 -11.630903
6686 2 -8.623561
6686 6684 1.349718
6686 6685 -11.21368
6686 6686 19.487523
6687 2 -4.563615
6687 6463 -4.054065
6687 6687 18.691047
6687 6688 -11.215152
6687 6689 2.141785
6688 2 -0.550237
6688 6 -0.013755
6688 6687 -10.356975
6688 6688 23.516823
6688 6689 -11.595856
6689 2 -8.624073
6689 6687 1.370633
6689 6688 -11.216445
6689 6689 19.469885
6690 2 -4.549967
6690 6467 -4.054065
6690 6690 18.652195
6690 6691 -11.209594
6690 6692 2.161432
6691 2 -0.551154
6691 6 -0.013755
6691 6690 -10.313152
6691 6691 23.508965
6691 6692 -11.630903
6692 2 -8.623561
6692 6690 1.349718
6692 6691 -11.21368
6692 6692 19.487523
6693 2 -4.563615
6693 6463 -4.054065
6693 6693 18.691047
6693 6694 -11.215152
6693 6695 2.141785
6694 2 -0.550237
6694 6 -0.013755
6694 6693 -10.356975
6694 6694 23.516823
6694 6695 -11.595856
6695 2 -8.624073
6695 6693 1.370633
6695 6694 -11.216445
6695 6695 19.469885
6696 2 -4.549967
6696 6467 -4.054065
6696 6696 18.652195
6696 6697 -11.209594
6696 6698 2.161432
6697 2 -0.551154
6697 6 -0.013755
6697 6696 -10.313152
6697 6697 23.508965
6697 6698 -11.630903
6698 2 -8.623561
6698 6696 1.349718
6698 6697 -11.21368
6698 6698 19.487523
6699 2 -4.563615
6699 6463 -4.054065
6699 6699 18.691047
6699 6700 -11.215152
6699 6701 2.141785
6700 2 -0.550237
6700 6 -0.013755
6700 6699 -10.356975
6700 6700 23.516823
6700 6701 -11.595856
6701 2 -8.624073
6701 6699 1.370633
6701 6700 -11.216445
6701 6701 19.469885
6702 2 -4.549967
6702 6467 -4.054065
6702 6702 18.652195
6702 6703 -11.209594
6702 6704 2.161432
6703 2 -0.551154
6703 6 -0.013755
6703 6702 -10.313152
6703 6703 23.508965
6703 6704 -11.630903
6704 2 -8.623561
6704 6702 1.349718
6704 6703 -11.21368
6704 6704 19.487523
6705 2 -4.563615
6705 6463 -4.054065
6705 6705 18.691047
6705 6706 -11.215152
6705 6707 2.141785
6706 2 -0.550237
6706 6 -0.013755
6706 6705 -10.356975
6706 6706 23.516823
6706 6707 -11.595856
6707 2 -8.624073
6707 6705 1.370633
6707 6706 -11.216445
6707 6707 19.469885
6708 2 -4.549967
6708 6467 -4.054065
6708 6708 18.652195
6708 6709 -11.209594
6708 6710 2.161432
6709 2 -0.551154
6709 6 -0.013755
6709 6708 -10.313152
6709 6709 23.508965
6709 6710 -11.630903
6710 2 -8.623561
6710 6708 1.349718
6710 6709 -11.21368
6710 6710 19.487523
6711 2 -4.563615
6711 6463 -4.054065
6711 6711 18.691047
6711 6712 -11.215152
6711 6713 2.141785
6712 2 -0.550237
6712 6 -0.013755
6712 6711 -10.356975
6712 6712 23.516823
6712 6713 -11.595856
6713 2 -8.624073
6713 6711 1.370633
6713 6712 -11.216445
6713 6713 19.469885
6714 2 -4.549967
6714 6467 -4.054065
6714 6714 18.652195
6714 6715 -11.209594
6714 6716 2.161432
6715 2 -0.551154
6715 6 -0.013755
6715 6714 -10.313152
6715 6715 23.508965
6715 6716 -11.630903
6716 2 -8.623561
6716 6714 1.349718
6716 6715 -11.21368
6716 6716 19.487523
6717 2 -4.563615
6717 6463 -4.054065
6717 6717 18.691047
6717 6718 -11.215152
6717 6719 2.141785
6718 2 -0.550237
6718 6 -0.013755
6718 6717 -10.356975
6718 6718 23.516823
6718 6719 -11.595856
6719 2 -8.624073
6719 6717 1.370633
6719 6718 -11.216445
6719 6719 19.469885
6720 2 -4.549967
6720 6467 -4.054065
6720 6720 18.652195
6720 6721 -11.209594
6720 6722 2.161432
6721 2 -0.551154
6721 6 -0.013755
6721 6720 -10.313152
6721 6721 23.508965
6721 6722 -11.630903
6722 2 -8.623561
6722 6720 1.349718
6722 6721 -11.21368
6722 6722 19.487523
6723 2 -4.563615
6723 6463 -4.054065
6723 6723 18.691047
6723 6724 -11.215152
6723 6725 2.141785
6724 2 -0.550237
6724 6 -0.013755
6724 6723 -10.356975
6724 6724 23.516823
6724 6725 -11.595856
6725 2 -8.624073
6725 6723 1.370633
6725 6724 -11.216445
6725 6725 19.469885
6726 2 -4.549967
6726 6467 -4.054065
6726 6726 18.652195
6726 6727 -11.209594
6726 6728 2.161432
6727 2 -0.551154
6727 6 -0.013755
6727 6726 -10.313152
6727 6727 23.508965
6727 6728 -11.630903
6728 2 -8.623561
6728 6726 1.349718
6728 6727 -11.21368
6728 6728 19.487523
6729 2 -6.956262
6729 6463 -2.674898
6729 6729 19.704527
6729 6730 -11.215152
6729 6731 2.141785
6730 2 -0.550237
6730 6 -0.013755
6730 6729 -10.356974
6730 6730 23.516823
6730 6731 -11.595857
6731 2 -8.624073
6731 6729 1.370632
6731 6730 -11.216445
6731 6731 19.469886
6732 2 -6.935286
6732 6467 -2.674898
6732 6732 19.658363
6732 6733 -11.209598
6732 6734 2.161419
6733 2 -0.551154
6733 6 -0.013755
6733 6732 -10.31318
6733 6733 23.50897
6733 6734 -11.630882
6734 2 -8.623562
6734 6732 1.349731
6734 6733 -11.213682
6734 6734 19.487512
6735 2 -1.094803
6735 6275 -1.216214
6735 6735 5.0122
6735 6736 -2.544305
6735 6737 0.843121
6736 2 -0.22801
6736 6274 -0.045872
6736 6735 -1.671501
6736 6736 6.723261
6736 6737 -3.777879
6737 2 -2.064368
6737 6463 -0.802472
6737 6735 -0.056663
6737 6736 -3.050681
6737 6737 6.974183
6738 2 -1.195236
6738 6274 -1.216214
6738 6738 5.298508
6738 6739 -2.761752
6738 6740 0.874693
6739 2 -0.207023
6739 6275 -0.045872
6739 6738 -1.881764
6739 6739 6.971264
6739 6740 -3.836605
6740 2 -2.063349
6740 6467 -0.802472
6740 6738 -0.033515
6740 6739 -3.099448
6740 6740 6.998784
6741 2 -1.094803
6741 6275 -1.216214
6741 6741 5.0122
6741 6742 -2.544305
6741 6743 0.843121
6742 2 -0.22801
6742 6274 -0.045872
6742 6741 -1.671501
6742 6742 6.723261
6742 6743 -3.777879
6743 2 -1.458099
6743 6463 -1.216214
6743 6741 -0.056663
6743 6742 -3.05068
6743 6743 6.781656
6744 2 -1.195238
6744 6274 -1.216214
6744 6744 5.298516
6744 6745 -2.761756
6744 6746 0.874692
6745 2 -0.207032
6745 6275 -0.045872
6745 6744 -1.881774
6745 6745 6.971269
6745 6746 -3.836591
6746 2 -1.458949
6746 6467 -1.216214
6746 6744 -0.033512
6746 6745 -3.09945
6746 6746 6.808124
6747 2 -1.094803
6747 6275 -1.216214
6747 6747 5.0122
6747 6748 -2.544305
6747 6749 0.843121
6748 2 -0.22801
6748 6274 -0.045872
6748 6747 -1.671501
6748 6748 6.723261
6748 6749 -3.777879
6749 2 -1.458099
6749 6463 -1.216214
6749 6747 -0.056663
6749 6748 -3.05068
6749 6749 6.781656
6750 2 -1.195238
6750 6274 -1.216214
6750 6750 5.298516
6750 6751 -2.761756
6750 6752 0.874692
6751 2 -0.207032
6751 6275 -0.045872
6751 6750 -1.881774
6751 6751 6.971269
6751 6752 -3.836591
6752 2 -1.458949
6752 6467 -1.216214
6752 6750 -0.033512
6752 6751 -3.09945
6752 6752 6.808124
6753 2 -1.094803
6753 6275 -1.216214
6753 6753 5.0122
6753 6754 -2.544305
6753 6755 0.843121
6754 2 -0.22801
6754 6274 -0.045872
6754 6753 -1.671501
6754 6754 6.723261
6754 6755 -3.777879
6755 2 -1.458099
6755 6463 -1.216214
6755 6753 -0.056663
6755 6754 -3.05068
6755 6755 6.781656
6756 2 -1.195238
6756 6274 -1.216214
6756 6756 5.298516
6756 6757 -2.761756
6756 6758 0.874692
6757 2 -0.207032
6757 6275 -0.045872
6757 6756 -1.881774
6757 6757 6.971269
6757 6758 -3.836591
6758 2 -1.458949
6758 6467 -1.216214
6758 6756 -0.033512
6758 6757 -3.09945
6758 6758 6.808124
6759 2 -1.094803
6759 6275 -1.216214
6759 6759 5.0122
6759 6760 -2.544305
6759 6761 0.843121
6760 2 -0.22801
6760 6274 -0.045872
6760 6759 -1.671501
6760 6760 6.723261
6760 6761 -3.777879
6761 2 -1.458099
6761 6463 -1.216214
6761 6759 -0.056663
6761 6760 -3.05068
6761 6761 6.781656
6762 2 -1.195238
6762 6274 -1.216214
6762 6762 5.298516
6762 6763 -2.761756
6762 6764 0.874692
6763 2 -0.207032
6763 6275 -0.045872
6763 6762 -1.881774
6763 6763 6.971269
6763 6764 -3.836591
6764 2 -1.458949
6764 6467 -1.216214
6764 6762 -0.033512
6764 6763 -3.09945
6764 6764 6.808124
6765 2 -1.094803
6765 6275 -1.216214
6765 6765 5.0122
6765 6766 -2.544305
6765 6767 0.843121
6766 2 -0.22801
6766 6274 -0.045872
6766 6765 -1.671501
6766 6766 6.723261
6766 6767 -3.777879
6767 2 -2.401027
6767 6463 -0.789478
6767 6765 -0.056663
6767 6766 -3.05068
6767 6767 7.297848
6768 2 -1.195236
6768 6274 -1.216214
6768 6768 5.298508
6768 6769 -2.761752
6768 6770 0.874693
6769 2 -0.207023
6769 6275 -0.045872
6769 6768 -1.881764
6769 6769 6.971264
6769 6770 -3.836605
6770 2 -2.398534
6770 6467 -0.789478
6770 6768 -0.033515
6770 6769 -3.099448
6770 6770 7.320975
6771 2 -0.602843
6771 6275 -0.608106
6771 6771 3.134859
6771 6772 -1.357456
6771 6773 0.433546
6772 2 -0.107844
6772 6270 -0.091743
6772 6771 -0.916447
6772 6772 4.016006
6772 6773 -1.899972
6773 2 -1.721451
6773 6771 -0.022543
6773 6772 -1.543487
6773 6773 4.287482
6774 2 -0.602843
6774 6275 -0.608106
6774 6774 3.134859
6774 6775 -1.357456
6774 6776 0.433546
6775 2 -0.107844
6775 6270 -0.091743
6775 6774 -0.916447
6775 6775 4.016006
6775 6776 -1.899972
6776 2 -1.721451
6776 6774 -0.022543
6776 6775 -1.543487
6776 6776 4.287482
6777 2 -0.642393
6777 6274 -0.608106
6777 6777 3.137182
6777 6778 -0.933703
6777 6779 0.047019
6778 2 -0.152633
6778 6272 -0.091743
6778 6777 -0.880356
6778 6778 3.168542
6778 6779 -1.043809
6779 2 -1.701791
6779 6777 -0.00312
6779 6778 -1.004355
6779 6779 3.709266
6780 2 -0.642393
6780 6274 -0.608106
6780 6780 3.137182
6780 6781 -0.933703
6780 6782 0.047019
6781 2 -0.152633
6781 6272 -0.091743
6781 6780 -0.880356
6781 6781 3.168542
6781 6782 -1.043809
6782 2 -1.701791
6782 6780 -0.00312
6782 6781 -1.004355
6782 6782 3.709266
6783 2 -2.251876
6783 6369 -2.837837
6783 6783 10.020285
6783 6784 -6.29265
6783 6785 2.362079
6784 2 -0.610216
6784 6275 -0.021413
6784 6783 -3.85551
6784 6784 15.215712
6784 6785 -9.728572
6785 2 -7.138971
6785 6783 -0.1468
6785 6784 -7.687007
6785 6785 15.972778
6786 2 -2.845061
6786 6373 -2.837837
6786 6786 10.961351
6786 6787 -6.676471
6786 6788 2.398018
6787 2 -0.588521
6787 6274 -0.021413
6787 6786 -4.246967
6787 6787 15.607021
6787 6788 -9.750119
6788 2 -7.165516
6788 6786 -0.11788
6788 6787 -7.67419
6788 6788 15.957586
6789 2 -2.251884
6789 6369 -2.837837
6789 6789 10.020288
6789 6790 -6.29265
6789 6791 2.362083
6790 2 -0.610242
6790 6275 -0.021413
6790 6789 -3.855517
6790 6790 15.215715
6790 6791 -9.728542
6791 2 -6.046614
6791 6789 -0.146796
6791 6790 -7.687009
6791 6791 14.880419
6792 2 -2.845062
6792 6373 -2.837837
6792 6792 10.96135
6792 6793 -6.676464
6792 6794 2.398014
6793 2 -0.588528
6793 6274 -0.021413
6793 6792 -4.246966
6793 6793 15.607005
6793 6794 -9.750098
6794 2 -6.072562
6794 6792 -0.11788
6794 6793 -7.674179
6794 6794 14.864622
6795 2 -2.251884
6795 6369 -2.837837
6795 6795 10.020288
6795 6796 -6.29265
6795 6797 2.362083
6796 2 -0.610242
6796 6275 -0.021413
6796 6795 -3.855517
6796 6796 15.215715
6796 6797 -9.728542
6797 2 -6.046614
6797 6795 -0.146796
6797 6796 -7.687009
6797 6797 14.880419
6798 2 -2.845062
6798 6373 -2.837837
6798 6798 10.96135
6798 6799 -6.676464
6798 6800 2.398014
6799 2 -0.588528
6799 6274 -0.021413
6799 6798 -4.246966
6799 6799 15.607005
6799 6800 -9.750098
6800 2 -6.072562
6800 6798 -0.11788
6800 6799 -7.674179
6800 6800 14.864622
6801 2 -2.251876
6801 6369 -2.837837
6801 6801 10.020285
6801 6802 -6.29265
6801 6803 2.362079
6802 2 -0.610216
6802 6275 -0.021413
6802 6801 -3.85551
6802 6802 15.215712
6802 6803 -9.728572
6803 2 -7.138971
6803 6801 -0.1468
6803 6802 -7.687007
6803 6803 15.972778
6804 2 -2.845061
6804 6373 -2.837837
6804 6804 10.961351
6804 6805 -6.676471
6804 6806 2.398018
6805 2 -0.588521
6805 6274 -0.021413
6805 6804 -4.246967
6805 6805 15.607021
6805 6806 -9.750119
6806 2 -7.165516
6806 6804 -0.11788
6806 6805 -7.67419
6806 6806 15.957586
6807 2 -3.339467
6807 6395 -3.162165
6807 6807 14.801112
6807 6808 -9.391663
6807 6809 2.092183
6808 2 -0.493373
6808 6369 -0.019231
6808 6807 -8.32714
6808 6808 19.880925
6808 6809 -10.041182
6809 2 -7.995907
6809 6807 1.075952
6809 6808 -9.421644
6809 6809 17.341598
6810 2 -2.329817
6810 6399 -3.162165
6810 6810 10.784624
6810 6811 -5.062816
6810 6812 0.770175
6811 2 -0.913794
6811 6373 -0.019231
6811 6810 -4.23872
6811 6811 12.783078
6811 6812 -6.611333
6812 2 -7.82962
6812 6810 -0.048624
6812 6811 -5.966548
6812 6812 14.844792
6813 2 -3.339475
6813 6395 -3.162165
6813 6813 14.800985
6813 6814 -9.391614
6813 6815 2.09227
6814 2 -0.493394
6814 6369 -0.019231
6814 6813 -8.326926
6814 6814 19.880848
6814 6815 -10.041298
6815 2 -6.788438
6815 6813 1.075854
6815 6814 -9.421611
6815 6815 16.134195
6816 2 -2.32982
6816 6399 -3.162165
6816 6816 10.78462
6816 6817 -5.062913
6816 6818 0.770279
6817 2 -0.913788
6817 6373 -0.019231
6817 6816 -4.23871
6817 6817 12.783297
6817 6818 -6.611568
6818 2 -6.621702
6818 6816 -0.04863
6818 6817 -5.966694
6818 6818 13.637026
6819 2 -3.339475
6819 6395 -3.162165
6819 6819 14.800985
6819 6820 -9.391614
6819 6821 2.09227
6820 2 -0.493394
6820 6369 -0.019231
6820 6819 -8.326926
6820 6820 19.880848
6820 6821 -10.041298
6821 2 -6.788438
6821 6819 1.075854
6821 6820 -9.421611
6821 6821 16.134195
6822 2 -2.32982
6822 6399 -3.162165
6822 6822 10.78462
6822 6823 -5.062913
6822 6824 0.770279
6823 2 -0.913788
6823 6373 -0.019231
6823 6822 -4.23871
6823 6823 12.783297
6823 6824 -6.611568
6824 2 -6.621702
6824 6822 -0.04863
6824 6823 -5.966694
6824 6824 13.637026
6825 2 -3.339475
6825 6395 -3.162165
6825 6825 14.800985
6825 6826 -9.391614
6825 6827 2.09227
6826 2 -0.493394
6826 6369 -0.019231
6826 6825 -8.326926
6826 6826 19.880848
6826 6827 -10.041298
6827 2 -6.788438
6827 6825 1.075854
6827 6826 -9.421611
6827 6827 16.134195
6828 2 -2.32982
6828 6399 -3.162165
6828 6828 10.78462
6828 6829 -5.062913
6828 6830 0.770279
6829 2 -0.913788
6829 6373 -0.019231
6829 6828 -4.23871
6829 6829 12.783297
6829 6830 -6.611568
6830 2 -6.621702
6830 6828 -0.04863
6830 6829 -5.966694
6830 6830 13.637026
6831 2 -3.339475
6831 6395 -3.162165
6831 6831 14.800985
6831 6832 -9.391614
6831 6833 2.09227
6832 2 -0.493394
6832 6369 -0.019231
6832 6831 -8.326926
6832 6832 19.880848
6832 6833 -10.041298
6833 2 -6.788438
6833 6831 1.075854
6833 6832 -9.421611
6833 6833 16.134195
6834 2 -2.32982
6834 6399 -3.162165
6834 6834 10.78462
6834 6835 -5.062913
6834 6836 0.770279
6835 2 -0.913788
6835 6373 -0.019231
6835 6834 -4.23871
6835 6835 12.783297
6835 6836 -6.611568
6836 2 -6.621702
6836 6834 -0.04863
6836 6835 -5.966694
6836 6836 13.637026
6837 2 -3.339475
6837 6395 -3.162165
6837 6837 14.800985
6837 6838 -9.391614
6837 6839 2.09227
6838 2 -0.493394
6838 6369 -0.019231
6838 6837 -8.326926
6838 6838 19.880848
6838 6839 -10.041298
6839 2 -6.788438
6839 6837 1.075854
6839 6838 -9.421611
6839 6839 16.134195
6840 2 -2.32982
6840 6399 -3.162165
6840 6840 10.78462
6840 6841 -5.062913
6840 6842 0.770279
6841 2 -0.913788
6841 6373 -0.019231
6841 6840 -4.23871
6841 6841 12.783297
6841 6842 -6.611568
6842 2 -6.621702
6842 6840 -0.04863
6842 6841 -5.966694
6842 6842 13.637026
6843 2 -3.339475
6843 6395 -3.162165
6843 6843 14.800985
6843 6844 -9.391614
6843 6845 2.09227
6844 2 -0.493394
6844 6369 -0.019231
6844 6843 -8.326926
6844 6844 19.880848
6844 6845 -10.041298
6845 2 -6.788438
6845 6843 1.075854
6845 6844 -9.421611
6845 6845 16.134195
6846 2 -2.32982
6846 6399 -3.162165
6846 6846 10.78462
6846 6847 -5.062913
6846 6848 0.770279
6847 2 -0.913788
6847 6373 -0.019231
6847 6846 -4.23871
6847 6847 12.783297
6847 6848 -6.611568
6848 2 -6.621702
6848 6846 -0.04863
6848 6847 -5.966694
6848 6848 13.637026
6849 2 -3.339475
6849 6395 -3.162165
6849 6849 14.800985
6849 6850 -9.391614
6849 6851 2.09227
6850 2 -0.493394
6850 6369 -0.019231
6850 6849 -8.326926
6850 6850 19.880848
6850 6851 -10.041298
6851 2 -6.788438
6851 6849 1.075854
6851 6850 -9.421611
6851 6851 16.134195
6852 2 -2.32982
6852 6399 -3.162165
6852 6852 10.78462
6852 6853 -5.062913
6852 6854 0.770279
6853 2 -0.913788
6853 6373 -0.019231
6853 6852 -4.23871
6853 6853 12.783297
6853 6854 -6.611568
6854 2 -6.621702
6854 6852 -0.04863
6854 6853 -5.966694
6854 6854 13.637026
6855 2 -3.339475
6855 6395 -3.162165
6855 6855 14.800985
6855 6856 -9.391614
6855 6857 2.09227
6856 2 -0.493394
6856 6369 -0.019231
6856 6855 -8.326926
6856 6856 19.880848
6856 6857 -10.041298
6857 2 -6.788438
6857 6855 1.075854
6857 6856 -9.421611
6857 6857 16.134195
6858 2 -2.32982
6858 6399 -3.162165
6858 6858 10.78462
6858 6859 -5.062913
6858 6860 0.770279
6859 2 -0.913788
6859 6373 -0.019231
6859 6858 -4.23871
6859 6859 12.783297
6859 6860 -6.611568
6860 2 -6.621702
6860 6858 -0.04863
6860 6859 -5.966694
6860 6860 13.637026
6861 2 -3.339475
6861 6395 -3.162165
6861 6861 14.800985
6861 6862 -9.391614
6861 6863 2.09227
6862 2 -0.493394
6862 6369 -0.019231
6862 6861 -8.326926
6862 6862 19.880848
6862 6863 -10.041298
6863 2 -6.788438
6863 6861 1.075854
6863 6862 -9.421611
6863 6863 16.134195
6864 2 -2.32982
6864 6399 -3.162165
6864 6864 10.78462
6864 6865 -5.062913
6864 6866 0.770279
6865 2 -0.913788
6865 6373 -0.019231
6865 6864 -4.23871
6865 6865 12.783297
6865 6866 -6.611568
6866 2 -6.621702
6866 6864 -0.04863
6866 6865 -5.966694
6866 6866 13.637026
6867 2 -5.449193
6867 6395 -2.052634
6867 6867 15.801388
6867 6868 -9.391694
6867 6869 2.092132
6868 2 -0.49338
6868 6369 -0.019231
6868 6867 -8.327294
6868 6868 19.880972
6868 6869 -10.041067
6869 2 -6.788446
6869 6867 1.076019
6869 6868 -9.421663
6869 6869 16.134089
6870 2 -3.838382
6870 6399 -2.052634
6870 6870 11.18365
6870 6871 -5.062912
6870 6872 0.770278
6871 2 -0.913788
6871 6373 -0.019231
6871 6870 -4.238711
6871 6871 12.783295
6871 6872 -6.611566
6872 2 -6.621702
6872 6870 -0.04863
6872 6871 -5.966693
6872 6872 13.637025
6873 1 -1.809705
6873 5 -17.419689
6873 6270 -0.11236
6873 6873 20.341753
6874 1 -1.761567
6874 5 -16.232575
6874 6272 -0.11236
6874 6874 19.106501
6875 1 -1.809705
6875 5 -17.419689
6875 6270 -0.11236
6875 6875 20.341753
6876 1 -1.761567
6876 5 -16.232575
6876 6272 -0.11236
6876 6876 19.106501
6877 1 -1.809705
6877 5 -17.419689
6877 6270 -0.11236
6877 6877 20.341753
6878 1 -1.761567
6878 5 -16.232575
6878 6272 -0.11236
6878 6878 19.106501
6879 1 -1.819241
6879 5 -17.409101
6879 6275 -0.11236
6879 6879 20.340702
6880 1 -1.816808
6880 5 -17.253987
6880 6274 -0.11236
6880 6880 20.183154
6881 1 -1.819241
6881 5 -17.409101
6881 6275 -0.11236
6881 6881 20.340702
6882 1 -1.816808
6882 5 -17.253987
6882 6274 -0.11236
6882 6882 20.183154
6883 1 -1.819241
6883 5 -17.409101
6883 6275 -0.11236
6883 6883 20.340702
6884 1 -1.816808
6884 5 -17.253987
6884 6274 -0.11236
6884 6884 20.183154
6885 6270 -1.020408
6885 6885 2.020408
6885 7520 -1.0
6886 1 -19.606396
6886 6275 -27.7502
6886 6886 48.356596
6887 1 -19.606396
6887 6270 -27.7502
6887 6887 48.356596
6888 6272 -1.020408
6888 6888 2.020408
6888 7519 -1.0
6889 1 -19.606396
6889 6274 -27.7502
6889 6889 48.356596
6890 1 -19.606396
6890 6272 -27.7502
6890 6890 48.356596
6891 6273 -4.385965
6891 6891 5.385965
6891 7517 -1.0
6892 6276 -4.385965
6892 6892 5.385965
6892 7516 -1.0
6893 6893 5.385965
6893 6894 -4.385965
6893 7515 -1.0
6894 1 -16.8765
6894 2 -9.244
6894 4 -1.0705
6894 5 -2.0275
6894 6893 -4.385965
6894 6894 155.606038
6894 6898 -34.3644
6894 6899 -57.346
6894 7394 -0.091743
6894 7397 -0.091743
6894 7495 -0.11236
6894 7497 -0.11236
6894 7499 -0.11236
6894 7507 -1.020408
6894 7509 -27.7502
6895 6895 5.385965
6895 6896 -4.385965
6895 7518 -1.0
6896 1 -16.882
6896 2 -9.139
6896 4 -1.0705
6896 5 -2.094
6896 6895 -4.385965
6896 6896 155.555538
6896 6897 -34.3639
6896 6900 -57.329
6896 7400 -0.091743
6896 7403 -0.091743
6896 7496 -0.11236
6896 7498 -0.11236
6896 7500 -0.11236
6896 7510 -1.020408
6896 7512 -27.7502
6897 1 -41.117
6897 2 -16.5255
6897 4 -25.0715
6897 5 -2.03
6897 6 -0.315
6897 6896 -34.3639
6897 6897 256.827596
6897 6898 -12.9405
6897 6900 -63.223
6897 6902 -0.045872
6897 6904 -0.789478
6897 6908 -0.045872
6897 6910 -1.216214
6897 6914 -0.045872
6897 6916 -1.216214
6897 6920 -0.045872
6897 6922 -1.216214
6897 6926 -0.045872
6897 6928 -1.216214
6897 6932 -0.045872
6897 6934 -1.216214
6897 6938 -0.045872
6897 6940 -1.216214
6897 6944 -0.045872
6897 6946 -1.216214
6897 6950 -0.045872
6897 6952 -1.216214
6897 6956 -0.045872
6897 6958 -1.216214
6897 6962 -0.045872
6897 6964 -1.216214
6897 6968 -0.045872
6897 6970 -1.216214
6897 6974 -0.045872
6897 6976 -1.216214
6897 6980 -0.045872
6897 6982 -1.216214
6897 6986 -0.045872
6897 6988 -1.216214
6897 6995 -1.522
6897 7085 -0.4245
6897 7089 -2.8285
6897 7358 -0.045872
6897 7360 -1.216214
6897 7364 -0.045872
6897 7366 -1.216214
6897 7370 -0.045872
6897 7372 -1.216214
6897 7376 -0.045872
6897 7378 -1.216214
6897 7382 -0.045872
6897 7384 -1.216214
6897 7388 -0.045872
6897 7390 -1.216214
6897 7399 -0.608106
6897 7402 -0.608106
6897 7409 -0.021413
6897 7415 -0.021413
6897 7421 -0.021413
6897 7427 -0.021413
6897 7502 -0.11236
6897 7504 -0.11236
6897 7506 -0.11236
6897 7511 -27.7502
6897 7513 1.0
6897 7517 1.0
6898 1 -41.1965
6898 2 -16.6505
6898 4 -25.0385
6898 5 -1.968
6898 6 -0.31
6898 6894 -34.3644
6898 6897 -12.9405
6898 6898 256.913596
6898 6899 -63.2005
6898 6901 -0.789478
6898 6905 -0.045872
6898 6907 -1.216214
6898 6911 -0.045872
6898 6913 -1.216214
6898 6917 -0.045872
6898 6919 -1.216214
6898 6923 -0.045872
6898 6925 -1.216214
6898 6929 -0.045872
6898 6931 -1.216214
6898 6935 -0.045872
6898 6937 -1.216214
6898 6941 -0.045872
6898 6943 -1.216214
6898 6947 -0.045872
6898 6949 -1.216214
6898 6953 -0.045872
6898 6955 -1.216214
6898 6959 -0.045872
6898 6961 -1.216214
6898 6965 -0.045872
6898 6967 -1.216214
6898 6971 -0.045872
6898 6973 -1.216214
6898 6977 -0.045872
6898 6979 -1.216214
6898 6983 -0.045872
6898 6985 -1.216214
6898 6989 -0.045872
6898 6991 -1.522
6898 7085 -2.832
6898 7089 -0.4245
6898 7357 -1.216214
6898 7361 -0.045872
6898 7363 -1.216214
6898 7367 -0.045872
6898 7369 -1.216214
6898 7373 -0.045872
6898 7375 -1.216214
6898 7379 -0.045872
6898 7381 -1.216214
6898 7385 -0.045872
6898 7387 -1.216214
6898 7391 -0.045872
6898 7393 -0.608106
6898 7396 -0.608106
6898 7406 -0.021413
6898 7412 -0.021413
6898 7418 -0.021413
6898 7424 -0.021413
6898 7501 -0.11236
6898 7503 -0.11236
6898 7505 -0.11236
6898 7508 -27.7502
6898 7514 1.0
6898 7516 1.0
6899 1 -132.8115
6899 2 -194.2496
6899 4 -52.4615
6899 5 -55.2875
6899 6894 -57.346
6899 6898 -63.2005
6899 6899 557.2816
6899 7017 -0.4625
6899 7021 -0.4625
6900 1 -132.228
6900 2 -197.5526
6900 4 -52.4615
6900 5 -55.5525
6900 6896 -57.329
6900 6897 -63.223
6900 6900 560.4086
6900 7017 -0.531
6900 7021 -0.531
6901 4 -2.473693
6901 6898 -0.789478
6901 6901 6.712557
6901 6902 -3.201549
6901 6903 0.752163
6902 4 -0.211547
6902 6897 -0.045872
6902 6901 -2.634749
6902 6902 7.536442
6902 6903 -3.644275
6903 4 -2.975967
6903 6901 0.23557
6903 6902 -3.243036
6903 6903 6.983433
6904 4 -1.951309
6904 6897 -0.789478
6904 6904 5.235153
6904 6905 -2.286198
6904 6906 0.791832
6905 4 -0.386221
6905 6898 -0.045872
6905 6904 -1.502453
6905 6905 6.48662
6905 6906 -3.552074
6906 4 -2.910748
6906 6904 -0.069371
6906 6905 -2.904102
6906 6906 6.884221
6907 4 -1.545737
6907 6898 -1.216214
6907 6907 6.211327
6907 6908 -3.201543
6907 6909 0.752167
6908 4 -0.211548
6908 6897 -0.045872
6908 6907 -2.634735
6908 6908 7.536435
6908 6909 -3.644281
6909 4 -2.975966
6909 6907 0.235564
6909 6908 -3.243033
6909 6909 6.983435
6910 4 -1.197786
6910 6897 -1.216214
6910 6910 4.908361
6910 6911 -2.286197
6910 6912 0.791836
6911 4 -0.386221
6911 6898 -0.045872
6911 6910 -1.502448
6911 6911 6.486623
6911 6912 -3.552083
6912 4 -2.910748
6912 6910 -0.069371
6912 6911 -2.904108
6912 6912 6.884227
6913 4 -1.545737
6913 6898 -1.216214
6913 6913 6.211327
6913 6914 -3.201543
6913 6915 0.752167
6914 4 -0.211548
6914 6897 -0.045872
6914 6913 -2.634735
6914 6914 7.536435
6914 6915 -3.644281
6915 4 -2.975966
6915 6913 0.235564
6915 6914 -3.243033
6915 6915 6.983435
6916 4 -1.197786
6916 6897 -1.216214
6916 6916 4.908361
6916 6917 -2.286197
6916 6918 0.791836
6917 4 -0.386221
6917 6898 -0.045872
6917 6916 -1.502448
6917 6917 6.486623
6917 6918 -3.552083
6918 4 -2.910748
6918 6916 -0.069371
6918 6917 -2.904108
6918 6918 6.884227
6919 4 -1.545737
6919 6898 -1.216214
6919 6919 6.211327
6919 6920 -3.201543
6919 6921 0.752167
6920 4 -0.211548
6920 6897 -0.045872
6920 6919 -2.634735
6920 6920 7.536435
6920 6921 -3.644281
6921 4 -2.975966
6921 6919 0.235564
6921 6920 -3.243033
6921 6921 6.983435
6922 4 -1.197786
6922 6897 -1.216214
6922 6922 4.908361
6922 6923 -2.286197
6922 6924 0.791836
6923 4 -0.386221
6923 6898 -0.045872
6923 6922 -1.502448
6923 6923 6.486623
6923 6924 -3.552083
6924 4 -2.910748
6924 6922 -0.069371
6924 6923 -2.904108
6924 6924 6.884227
6925 4 -1.545737
6925 6898 -1.216214
6925 6925 6.211327
6925 6926 -3.201543
6925 6927 0.752167
6926 4 -0.211548
6926 6897 -0.045872
6926 6925 -2.634735
6926 6926 7.536435
6926 6927 -3.644281
6927 4 -2.975966
6927 6925 0.235564
6927 6926 -3.243033
6927 6927 6.983435
6928 4 -1.197786
6928 6897 -1.216214
6928 6928 4.908361
6928 6929 -2.286197
6928 6930 0.791836
6929 4 -0.386221
6929 6898 -0.045872
6929 6928 -1.502448
6929 6929 6.486623
6929 6930 -3.552083
6930 4 -2.910748
6930 6928 -0.069371
6930 6929 -2.904108
6930 6930 6.884227
6931 4 -1.545737
6931 6898 -1.216214
6931 6931 6.211327
6931 6932 -3.201543
6931 6933 0.752167
6932 4 -0.211548
6932 6897 -0.045872
6932 6931 -2.634735
6932 6932 7.536435
6932 6933 -3.644281
6933 4 -2.975966
6933 6931 0.235564
6933 6932 -3.243033
6933 6933 6.983435
6934 4 -1.197786
6934 6897 -1.216214
6934 6934 4.908361
6934 6935 -2.286197
6934 6936 0.791836
6935 4 -0.386221
6935 6898 -0.045872
6935 6934 -1.502448
6935 6935 6.486623
6935 6936 -3.552083
6936 4 -2.910748
6936 6934 -0.069371
6936 6935 -2.904108
6936 6936 6.884227
6937 4 -1.545737
6937 6898 -1.216214
6937 6937 6.211327
6937 6938 -3.201543
6937 6939 0.752167
6938 4 -0.211548
6938 6897 -0.045872
6938 6937 -2.634735
6938 6938 7.536435
6938 6939 -3.644281
6939 4 -2.975966
6939 6937 0.235564
6939 6938 -3.243033
6939 6939 6.983435
6940 4 -1.197786
6940 6897 -1.216214
6940 6940 4.908361
6940 6941 -2.286197
6940 6942 0.791836
6941 4 -0.386221
6941 6898 -0.045872
6941 6940 -1.502448
6941 6941 6.486623
6941 6942 -3.552083
6942 4 -2.910748
6942 6940 -0.069371
6942 6941 -2.904108
6942 6942 6.884227
6943 4 -1.545737
6943 6898 -1.216214
6943 6943 6.211327
6943 6944 -3.201543
6943 6945 0.752167
6944 4 -0.211548
6944 6897 -0.045872
6944 6943 -2.634735
6944 6944 7.536435
6944 6945 -3.644281
6945 4 -2.975966
6945 6943 0.235564
6945 6944 -3.243033
6945 6945 6.983435
6946 4 -1.197786
6946 6897 -1.216214
6946 6946 4.908361
6946 6947 -2.286197
6946 6948 0.791836
6947 4 -0.386221
6947 6898 -0.045872
6947 6946 -1.502448
6947 6947 6.486623
6947 6948 -3.552083
6948 4 -2.910748
6948 6946 -0.069371
6948 6947 -2.904108
6948 6948 6.884227
6949 4 -1.545737
6949 6898 -1.216214
6949 6949 6.211327
6949 6950 -3.201543
6949 6951 0.752167
6950 4 -0.211548
6950 6897 -0.045872
6950 6949 -2.634735
6950 6950 7.536435
6950 6951 -3.644281
6951 4 -2.975966
6951 6949 0.235564
6951 6950 -3.243033
6951 6951 6.983435
6952 4 -1.197786
6952 6897 -1.216214
6952 6952 4.908361
6952 6953 -2.286197
6952 6954 0.791836
6953 4 -0.386221
6953 6898 -0.045872
6953 6952 -1.502448
6953 6953 6.486623
6953 6954 -3.552083
6954 4 -2.910748
6954 6952 -0.069371
6954 6953 -2.904108
6954 6954 6.884227
6955 4 -1.545737
6955 6898 -1.216214
6955 6955 6.211327
6955 6956 -3.201543
6955 6957 0.752167
6956 4 -0.211548
6956 6897 -0.045872
6956 6955 -2.634735
6956 6956 7.536435
6956 6957 -3.644281
6957 4 -2.975966
6957 6955 0.235564
6957 6956 -3.243033
6957 6957 6.983435
6958 4 -1.197786
6958 6897 -1.216214
6958 6958 4.908361
6958 6959 -2.286197
6958 6960 0.791836
6959 4 -0.386221
6959 6898 -0.045872
6959 6958 -1.502448
6959 6959 6.486623
6959 6960 -3.552083
6960 4 -2.910748
6960 6958 -0.069371
6960 6959 -2.904108
6960 6960 6.884227
6961 4 -1.545737
6961 6898 -1.216214
6961 6961 6.211327
6961 6962 -3.201543
6961 6963 0.752167
6962 4 -0.211548
6962 6897 -0.045872
6962 6961 -2.634735
6962 6962 7.536435
6962 6963 -3.644281
6963 4 -2.975966
6963 6961 0.235564
6963 6962 -3.243033
6963 6963 6.983435
6964 4 -1.197786
6964 6897 -1.216214
6964 6964 4.908361
6964 6965 -2.286197
6964 6966 0.791836
6965 4 -0.386221
6965 6898 -0.045872
6965 6964 -1.502448
6965 6965 6.486623
6965 6966 -3.552083
6966 4 -2.910748
6966 6964 -0.069371
6966 6965 -2.904108
6966 6966 6.884227
6967 4 -1.545737
6967 6898 -1.216214
6967 6967 6.211327
6967 6968 -3.201543
6967 6969 0.752167
6968 4 -0.211548
6968 6897 -0.045872
6968 6967 -2.634735
6968 6968 7.536435
6968 6969 -3.644281
6969 4 -2.975966
6969 6967 0.235564
6969 6968 -3.243033
6969 6969 6.983435
6970 4 -1.197786
6970 6897 -1.216214
6970 6970 4.908361
6970 6971 -2.286197
6970 6972 0.791836
6971 4 -0.386221
6971 6898 -0.045872
6971 6970 -1.502448
6971 6971 6.486623
6971 6972 -3.552083
6972 4 -2.910748
6972 6970 -0.069371
6972 6971 -2.904108
6972 6972 6.884227
6973 4 -1.545737
6973 6898 -1.216214
6973 6973 6.211327
6973 6974 -3.201543
6973 6975 0.752167
6974 4 -0.211548
6974 6897 -0.045872
6974 6973 -2.634735
6974 6974 7.536435
6974 6975 -3.644281
6975 4 -2.975966
6975 6973 0.235564
6975 6974 -3.243033
6975 6975 6.983435
6976 4 -1.197786
6976 6897 -1.216214
6976 6976 4.908361
6976 6977 -2.286197
6976 6978 0.791836
6977 4 -0.386221
6977 6898 -0.045872
6977 6976 -1.502448
6977 6977 6.486623
6977 6978 -3.552083
6978 4 -2.910748
6978 6976 -0.069371
6978 6977 -2.904108
6978 6978 6.884227
6979 4 -1.545737
6979 6898 -1.216214
6979 6979 6.211327
6979 6980 -3.201543
6979 6981 0.752167
6980 4 -0.211548
6980 6897 -0.045872
6980 6979 -2.634735
6980 6980 7.536435
6980 6981 -3.644281
6981 4 -2.975966
6981 6979 0.235564
6981 6980 -3.243033
6981 6981 6.983435
6982 4 -1.197786
6982 6897 -1.216214
6982 6982 4.908361
6982 6983 -2.286197
6982 6984 0.791836
6983 4 -0.386221
6983 6898 -0.045872
6983 6982 -1.502448
6983 6983 6.486623
6983 6984 -3.552083
6984 4 -2.910748
6984 6982 -0.069371
6984 6983 -2.904108
6984 6984 6.884227
6985 4 -1.54574
6985 6898 -1.216214
6985 6985 6.211364
6985 6986 -3.201565
6985 6987 0.752155
6986 4 -0.211538
6986 6897 -0.045872
6986 6985 -2.634784
6986 6986 7.536462
6986 6987 -3.644268
6987 4 -3.612892
6987 6985 0.235586
6987 6986 -3.243045
6987 6987 7.620351
6988 4 -1.197787
6988 6897 -1.216214
6988 6988 4.908359
6988 6989 -2.286216
6988 6990 0.791856
6989 4 -0.386212
6989 6898 -0.045872
6989 6988 -1.502445
6989 6989 6.486662
6989 6990 -3.552133
6990 4 -3.547833
6990 6988 -0.069373
6990 6989 -2.904136
6990 6990 7.521342
6991 1 -17.2055
6991 2 -19.5265
6991 4 -5.6965
6991 6 -0.0405
6991 6898 -1.522
6991 6991 68.59008
6991 6992 -2.297298
6991 6999 -2.297298
6991 7005 -2.297298
6991 7011 -2.297298
6991 7017 -2.847
6991 7405 -2.837837
6991 7411 -2.837837
6991 7417 -2.837837
6991 7423 -2.837837
6991 7430 -0.019231
6991 7436 -0.019231
6991 7442 -0.019231
6991 7448 -0.019231
6991 7454 -0.019231
6991 7460 -0.019231
6991 7466 -0.019231
6991 7472 -0.019231
6991 7478 -0.019231
6991 7484 -0.019231
6991 7490 -0.019231
6992 4 -2.824502
6992 6991 -2.297298
6992 6992 11.234141
6992 6993 -6.613749
6992 6994 1.501408
6993 2 -0.026455
6993 4 -0.454758
6993 6992 -5.657491
6993 6993 14.371073
6993 6994 -7.232369
6994 4 -6.632155
6994 6992 0.734599
6994 6993 -6.662123
6994 6994 13.559679
6995 1 -17.185
6995 2 -19.5575
6995 4 -5.6545
6995 6 -0.0345
6995 6897 -1.522
6995 6995 68.55008
6995 6996 -2.297298
6995 7002 -2.297298
6995 7008 -2.297298
6995 7014 -2.297298
6995 7021 -2.8445
6995 7408 -2.837837
6995 7414 -2.837837
6995 7420 -2.837837
6995 7426 -2.837837
6995 7433 -0.019231
6995 7439 -0.019231
6995 7445 -0.019231
6995 7451 -0.019231
6995 7457 -0.019231
6995 7463 -0.019231
6995 7469 -0.019231
6995 7475 -0.019231
6995 7481 -0.019231
6995 7487 -0.019231
6995 7493 -0.019231
6996 4 -2.301402
6996 6995 -2.297298
6996 6996 9.0889
6996 6997 -5.464554
6996 6998 1.974354
6997 2 -0.026455
6997 4 -0.612889
6997 6996 -3.624871
6997 6997 13.087558
6997 6998 -7.823343
6998 4 -6.54519
6998 6996 -0.059072
6998 6997 -6.183102
6998 6998 13.787364
6999 4 -2.824498
6999 6991 -2.297298
6999 6999 11.234085
6999 7000 -6.61372
6999 7001 1.501431
7000 2 -0.026455
7000 4 -0.454774
7000 6999 -5.657408
7000 7000 14.371038
7000 7001 -7.232401
7001 4 -5.525046
7001 6999 0.73456
7001 7000 -6.662105
7001 7001 12.452591
7002 4 -2.301411
7002 6995 -2.297298
7002 7002 9.088889
7002 7003 -5.464539
7002 7004 1.974358
7003 2 -0.026455
7003 4 -0.612889
7003 7002 -3.624863
7003 7003 13.087553
7003 7004 -7.823346
7004 4 -5.438269
7004 7002 -0.059072
7004 7003 -6.183097
7004 7004 12.680438
7005 4 -2.824498
7005 6991 -2.297298
7005 7005 11.234085
7005 7006 -6.61372
7005 7007 1.501431
7006 2 -0.026455
7006 4 -0.454774
7006 7005 -5.657408
7006 7006 14.371038
7006 7007 -7.232401
7007 4 -5.525046
7007 7005 0.73456
7007 7006 -6.662105
7007 7007 12.452591
7008 4 -2.301411
7008 6995 -2.297298
7008 7008 9.088889
7008 7009 -5.464539
7008 7010 1.974358
7009 2 -0.026455
7009 4 -0.612889
7009 7008 -3.624863
7009 7009 13.087553
7009 7010 -7.823346
7010 4 -5.438269
7010 7008 -0.059072
7010 7009 -6.183097
7010 7010 12.680438
7011 4 -2.824502
7011 6991 -2.297298
7011 7011 11.234141
7011 7012 -6.613749
7011 7013 1.501408
7012 2 -0.026455
7012 4 -0.454758
7012 7011 -5.657491
7012 7012 14.371073
7012 7013 -7.232369
7013 4 -6.632155
7013 7011 0.734599
7013 7012 -6.662123
7013 7013 13.559679
7014 4 -2.301402
7014 6995 -2.297298
7014 7014 9.0889
7014 7015 -5.464554
7014 7016 1.974354
7015 2 -0.026455
7015 4 -0.612889
7015 7014 -3.624871
7015 7015 13.087558
7015 7016 -7.823343
7016 4 -6.54519
7016 7014 -0.059072
7016 7015 -6.183102
7016 7016 13.787364
7017 1 -20.1005
7017 2 -250.3055
7017 4 -27.4455
7017 5 -0.347
7017 6 -0.454
7017 6899 -0.4625
7017 6900 -0.531
7017 6991 -2.847
7017 7017 368.2527
7017 7018 -1.754386
7017 7021 -2.304
7017 7025 -2.702703
7017 7031 -2.702703
7017 7037 -2.702703
7017 7043 -2.702703
7017 7049 -2.702703
7017 7055 -2.702703
7017 7061 -2.702703
7017 7067 -2.702703
7017 7073 -2.702703
7017 7079 -2.702703
7017 7429 -3.162165
7017 7435 -3.162165
7017 7441 -3.162165
7017 7447 -3.162165
7017 7453 -3.162165
7017 7459 -3.162165
7017 7465 -3.162165
7017 7471 -3.162165
7017 7477 -3.162165
7017 7483 -3.162165
7017 7489 -2.052634
7018 4 -4.128758
7018 7017 -1.754386
7018 7018 10.805667
7018 7019 -6.249379
7018 7020 2.326856
7019 2 -0.022523
7019 4 -0.750329
7019 7018 -4.056754
7019 7019 15.02952
7019 7020 -9.199915
7020 4 -6.348238
7020 7018 -0.120479
7020 7019 -7.231145
7020 7020 14.699862
7021 1 -17.0165
7021 2 -252.185
7021 4 -27.7895
7021 5 -0.347
7021 6 -0.4565
7021 6899 -0.4625
7021 6900 -0.531
7021 6995 -2.8445
7021 7017 -2.304
7021 7021 367.3922
7021 7022 -1.754386
7021 7028 -2.702703
7021 7034 -2.702703
7021 7040 -2.702703
7021 7046 -2.702703
7021 7052 -2.702703
7021 7058 -2.702703
7021 7064 -2.702703
7021 7070 -2.702703
7021 7076 -2.702703
7021 7082 -2.702703
7021 7432 -3.162165
7021 7438 -3.162165
7021 7444 -3.162165
7021 7450 -3.162165
7021 7456 -3.162165
7021 7462 -3.162165
7021 7468 -3.162165
7021 7474 -3.162165
7021 7480 -3.162165
7021 7486 -3.162165
7021 7492 -2.052634
7022 4 -5.943621
7022 7021 -1.754386
7022 7022 15.175234
7022 7023 -7.938759
7022 7024 1.461532
7023 2 -0.022523
7023 4 -0.472514
7023 7022 -7.430614
7023 7023 16.927528
7023 7024 -8.001878
7024 4 -6.526288
7024 7022 1.286045
7024 7023 -7.940795
7024 7024 14.181039
7025 4 -2.559296
7025 7017 -2.702703
7025 7025 10.184458
7025 7026 -6.249311
7025 7027 2.326852
7026 2 -0.022523
7026 4 -0.750341
7026 7025 -4.056682
7026 7026 15.029452
7026 7027 -9.199906
7027 4 -6.348231
7027 7025 -0.12049
7027 7026 -7.231135
7027 7027 14.699856
7028 4 -3.755706
7028 7021 -2.702703
7028 7028 13.93563
7028 7029 -7.938758
7028 7030 1.461537
7029 2 -0.022523
7029 4 -0.472515
7029 7028 -7.430602
7029 7029 16.927527
7029 7030 -8.001888
7030 4 -6.526287
7030 7028 1.286038
7030 7029 -7.940795
7030 7030 14.181044
7031 4 -2.559296
7031 7017 -2.702703
7031 7031 10.184458
7031 7032 -6.249311
7031 7033 2.326852
7032 2 -0.022523
7032 4 -0.750341
7032 7031 -4.056682
7032 7032 15.029452
7032 7033 -9.199906
7033 4 -6.348231
7033 7031 -0.12049
7033 7032 -7.231135
7033 7033 14.699856
7034 4 -3.755706
7034 7021 -2.702703
7034 7034 13.93563
7034 7035 -7.938758
7034 7036 1.461537
7035 2 -0.022523
7035 4 -0.472515
7035 7034 -7.430602
7035 7035 16.927527
7035 7036 -8.001888
7036 4 -6.526287
7036 7034 1.286038
7036 7035 -7.940795
7036 7036 14.181044
7037 4 -2.559296
7037 7017 -2.702703
7037 7037 10.184458
7037 7038 -6.249311
7037 7039 2.326852
7038 2 -0.022523
7038 4 -0.750341
7038 7037 -4.056682
7038 7038 15.029452
7038 7039 -9.199906
7039 4 -6.348231
7039 7037 -0.12049
7039 7038 -7.231135
7039 7039 14.699856
7040 4 -3.755706
7040 7021 -2.702703
7040 7040 13.93563
7040 7041 -7.938758
7040 7042 1.461537
7041 2 -0.022523
7041 4 -0.472515
7041 7040 -7.430602
7041 7041 16.927527
7041 7042 -8.001888
7042 4 -6.526287
7042 7040 1.286038
7042 7041 -7.940795
7042 7042 14.181044
7043 4 -2.559296
7043 7017 -2.702703
7043 7043 10.184458
7043 7044 -6.249311
7043 7045 2.326852
7044 2 -0.022523
7044 4 -0.750341
7044 7043 -4.056682
7044 7044 15.029452
7044 7045 -9.199906
7045 4 -6.348231
7045 7043 -0.12049
7045 7044 -7.231135
7045 7045 14.699856
7046 4 -3.755706
7046 7021 -2.702703
7046 7046 13.93563
7046 7047 -7.938758
7046 7048 1.461537
7047 2 -0.022523
7047 4 -0.472515
7047 7046 -7.430602
7047 7047 16.927527
7047 7048 -8.001888
7048 4 -6.526287
7048 7046 1.286038
7048 7047 -7.940795
7048 7048 14.181044
7049 4 -2.559296
7049 7017 -2.702703
7049 7049 10.184458
7049 7050 -6.249311
7049 7051 2.326852
7050 2 -0.022523
7050 4 -0.750341
7050 7049 -4.056682
7050 7050 15.029452
7050 7051 -9.199906
7051 4 -6.348231
7051 7049 -0.12049
7051 7050 -7.231135
7051 7051 14.699856
7052 4 -3.755706
7052 7021 -2.702703
7052 7052 13.93563
7052 7053 -7.938758
7052 7054 1.461537
7053 2 -0.022523
7053 4 -0.472515
7053 7052 -7.430602
7053 7053 16.927527
7053 7054 -8.001888
7054 4 -6.526287
7054 7052 1.286038
7054 7053 -7.940795
7054 7054 14.181044
7055 4 -2.559296
7055 7017 -2.702703
7055 7055 10.184458
7055 7056 -6.249311
7055 7057 2.326852
7056 2 -0.022523
7056 4 -0.750341
7056 7055 -4.056682
7056 7056 15.029452
7056 7057 -9.199906
7057 4 -6.348231
7057 7055 -0.12049
7057 7056 -7.231135
7057 7057 14.699856
7058 4 -3.755706
7058 7021 -2.702703
7058 7058 13.93563
7058 7059 -7.938758
7058 7060 1.461537
7059 2 -0.022523
7059 4 -0.472515
7059 7058 -7.430602
7059 7059 16.927527
7059 7060 -8.001888
7060 4 -6.526287
7060 7058 1.286038
7060 7059 -7.940795
7060 7060 14.181044
7061 4 -2.559296
7061 7017 -2.702703
7061 7061 10.184458
7061 7062 -6.249311
7061 7063 2.326852
7062 2 -0.022523
7062 4 -0.750341
7062 7061 -4.056682
7062 7062 15.029452
7062 7063 -9.199906
7063 4 -6.348231
7063 7061 -0.12049
7063 7062 -7.231135
7063 7063 14.699856
7064 4 -3.755706
7064 7021 -2.702703
7064 7064 13.93563
7064 7065 -7.938758
7064 7066 1.461537
7065 2 -0.022523
7065 4 -0.472515
7065 7064 -7.430602
7065 7065 16.927527
7065 7066 -8.001888
7066 4 -6.526287
7066 7064 1.286038
7066 7065 -7.940795
7066 7066 14.181044
7067 4 -2.559296
7067 7017 -2.702703
7067 7067 10.184458
7067 7068 -6.249311
7067 7069 2.326852
7068 2 -0.022523
7068 4 -0.750341
7068 7067 -4.056682
7068 7068 15.029452
7068 7069 -9.199906
7069 4 -6.348231
7069 7067 -0.12049
7069 7068 -7.231135
7069 7069 14.699856
7070 4 -3.755706
7070 7021 -2.702703
7070 7070 13.93563
7070 7071 -7.938758
7070 7072 1.461537
7071 2 -0.022523
7071 4 -0.472515
7071 7070 -7.430602
7071 7071 16.927527
7071 7072 -8.001888
7072 4 -6.526287
7072 7070 1.286038
7072 7071 -7.940795
7072 7072 14.181044
7073 4 -2.559296
7073 7017 -2.702703
7073 7073 10.184458
7073 7074 -6.249311
7073 7075 2.326852
7074 2 -0.022523
7074 4 -0.750341
7074 7073 -4.056682
7074 7074 15.029452
7074 7075 -9.199906
7075 4 -6.348231
7075 7073 -0.12049
7075 7074 -7.231135
7075 7075 14.699856
7076 4 -3.755706
7076 7021 -2.702703
7076 7076 13.93563
7076 7077 -7.938758
7076 7078 1.461537
7077 2 -0.022523
7077 4 -0.472515
7077 7076 -7.430602
7077 7077 16.927527
7077 7078 -8.001888
7078 4 -6.526287
7078 7076 1.286038
7078 7077 -7.940795
7078 7078 14.181044
7079 4 -2.559282
7079 7017 -2.702703
7079 7079 10.184454
7079 7080 -6.249313
7079 7081 2.326843
7080 2 -0.022523
7080 4 -0.750345
7080 7079 -4.056673
7080 7080 15.029439
7080 7081 -9.199898
7081 4 -7.631411
7081 7079 -0.120496
7081 7080 -7.231135
7081 7081 15.983042
7082 4 -3.755706
7082 7021 -2.702703
7082 7082 13.935636
7082 7083 -7.938759
7082 7084 1.461532
7083 2 -0.022523
7083 4 -0.472512
7083 7082 -7.430613
7083 7083 16.927528
7083 7084 -8.00188
7084 4 -7.809933
7084 7082 1.286044
7084 7083 -7.940795
7084 7084 15.464685
7085 1 -15.837
7085 2 -74.9745
7085 4 -1.555
7085 6 -11.935
7085 6897 -0.4245
7085 6898 -2.832
7085 7085 296.098563
7085 7086 -4.054065
7085 7089 -0.03
7085 7093 -4.054065
7085 7099 -4.054065
7085 7105 -4.054065
7085 7111 -4.054065
7085 7117 -4.054065
7085 7123 -4.054065
7085 7129 -4.054065
7085 7135 -4.054065
7085 7141 -4.054065
7085 7147 -4.054065
7085 7153 -4.054065
7085 7159 -4.054065
7085 7165 -4.054065
7085 7171 -4.054065
7085 7177 -4.054065
7085 7183 -4.054065
7085 7189 -4.054065
7085 7195 -4.054065
7085 7201 -4.054065
7085 7207 -4.054065
7085 7213 -4.054065
7085 7219 -4.054065
7085 7225 -4.054065
7085 7231 -4.054065
7085 7237 -4.054065
7085 7243 -4.054065
7085 7249 -4.054065
7085 7255 -4.054065
7085 7261 -4.054065
7085 7267 -4.054065
7085 7273 -4.054065
7085 7279 -4.054065
7085 7285 -4.054065
7085 7291 -4.054065
7085 7297 -4.054065
7085 7303 -4.054065
7085 7309 -4.054065
7085 7315 -4.054065
7085 7321 -4.054065
7085 7327 -4.054065
7085 7333 -4.054065
7085 7339 -4.054065
7085 7345 -4.054065
7085 7351 -2.674898
7085 7359 -0.802472
7085 7365 -1.216214
7085 7371 -1.216214
7085 7377 -1.216214
7085 7383 -1.216214
7085 7389 -0.789478
7086 2 -4.571399
7086 7085 -4.054065
7086 7086 19.464122
7086 7087 -11.217433
7086 7088 1.378775
7087 2 -0.549337
7087 6 -0.013755
7087 7086 -11.582134
7087 7087 23.51957
7087 7088 -10.374343
7088 2 -10.148244
7088 7086 2.133275
7088 7087 -11.217129
7088 7088 20.232098
7089 1 -15.7255
7089 2 -75.113
7089 4 -1.5575
7089 6 -11.9355
7089 6897 -2.8285
7089 6898 -0.4245
7089 7085 -0.03
7089 7089 296.125063
7089 7090 -4.054065
7089 7096 -4.054065
7089 7102 -4.054065
7089 7108 -4.054065
7089 7114 -4.054065
7089 7120 -4.054065
7089 7126 -4.054065
7089 7132 -4.054065
7089 7138 -4.054065
7089 7144 -4.054065
7089 7150 -4.054065
7089 7156 -4.054065
7089 7162 -4.054065
7089 7168 -4.054065
7089 7174 -4.054065
7089 7180 -4.054065
7089 7186 -4.054065
7089 7192 -4.054065
7089 7198 -4.054065
7089 7204 -4.054065
7089 7210 -4.054065
7089 7216 -4.054065
7089 7222 -4.054065
7089 7228 -4.054065
7089 7234 -4.054065
7089 7240 -4.054065
7089 7246 -4.054065
7089 7252 -4.054065
7089 7258 -4.054065
7089 7264 -4.054065
7089 7270 -4.054065
7089 7276 -4.054065
7089 7282 -4.054065
7089 7288 -4.054065
7089 7294 -4.054065
7089 7300 -4.054065
7089 7306 -4.054065
7089 7312 -4.054065
7089 7318 -4.054065
7089 7324 -4.054065
7089 7330 -4.054065
7089 7336 -4.054065
7089 7342 -4.054065
7089 7348 -4.054065
7089 7354 -2.674898
7089 7362 -0.802472
7089 7368 -1.216214
7089 7374 -1.216214
7089 7380 -1.216214
7089 7386 -1.216214
7089 7392 -0.789478
7090 2 -4.541261
7090 7089 -4.054065
7090 7090 18.62628
7090 7091 -11.20562
7090 7092 2.174666
7091 2 -0.55183
7091 6 -0.013755
7091 7090 -10.283561
7091 7091 23.503326
7091 7092 -11.65418
7092 2 -10.147507
7092 7090 1.33578
7092 7091 -11.211609
7092 7092 21.023337
7093 2 -4.571399
7093 7085 -4.054065
7093 7093 19.464123
7093 7094 -11.217433
7093 7095 1.378775
7094 2 -0.549337
7094 6 -0.013755
7094 7093 -11.582136
7094 7094 23.51957
7094 7095 -10.374342
7095 2 -8.623929
7095 7093 2.133276
7095 7094 -11.217129
7095 7095 18.707782
7096 2 -4.541262
7096 7089 -4.054065
7096 7096 18.626267
7096 7097 -11.205617
7096 7098 2.174676
7097 2 -0.551832
7097 6 -0.013755
7097 7096 -10.283536
7097 7097 23.503321
7097 7098 -11.654198
7098 2 -8.623221
7098 7096 1.335767
7098 7097 -11.211608
7098 7098 19.499061
7099 2 -4.571399
7099 7085 -4.054065
7099 7099 19.464123
7099 7100 -11.217433
7099 7101 1.378775
7100 2 -0.549337
7100 6 -0.013755
7100 7099 -11.582136
7100 7100 23.51957
7100 7101 -10.374342
7101 2 -8.623929
7101 7099 2.133276
7101 7100 -11.217129
7101 7101 18.707782
7102 2 -4.541262
7102 7089 -4.054065
7102 7102 18.626267
7102 7103 -11.205617
7102 7104 2.174676
7103 2 -0.551832
7103 6 -0.013755
7103 7102 -10.283536
7103 7103 23.503321
7103 7104 -11.654198
7104 2 -8.623221
7104 7102 1.335767
7104 7103 -11.211608
7104 7104 19.499061
7105 2 -4.571399
7105 7085 -4.054065
7105 7105 19.464123
7105 7106 -11.217433
7105 7107 1.378775
7106 2 -0.549337
7106 6 -0.013755
7106 7105 -11.582136
7106 7106 23.51957
7106 7107 -10.374342
7107 2 -8.623929
7107 7105 2.133276
7107 7106 -11.217129
7107 7107 18.707782
7108 2 -4.541262
7108 7089 -4.054065
7108 7108 18.626267
7108 7109 -11.205617
7108 7110 2.174676
7109 2 -0.551832
7109 6 -0.013755
7109 7108 -10.283536
7109 7109 23.503321
7109 7110 -11.654198
7110 2 -8.623221
7110 7108 1.335767
7110 7109 -11.211608
7110 7110 19.499061
7111 2 -4.571399
7111 7085 -4.054065
7111 7111 19.464123
7111 7112 -11.217433
7111 7113 1.378775
7112 2 -0.549337
7112 6 -0.013755
7112 7111 -11.582136
7112 7112 23.51957
7112 7113 -10.374342
7113 2 -8.623929
7113 7111 2.133276
7113 7112 -11.217129
7113 7113 18.707782
7114 2 -4.541262
7114 7089 -4.054065
7114 7114 18.626267
7114 7115 -11.205617
7114 7116 2.174676
7115 2 -0.551832
7115 6 -0.013755
7115 7114 -10.283536
7115 7115 23.503321
7115 7116 -11.654198
7116 2 -8.623221
7116 7114 1.335767
7116 7115 -11.211608
7116 7116 19.499061
7117 2 -4.571399
7117 7085 -4.054065
7117 7117 19.464123
7117 7118 -11.217433
7117 7119 1.378775
7118 2 -0.549337
7118 6 -0.013755
7118 7117 -11.582136
7118 7118 23.51957
7118 7119 -10.374342
7119 2 -8.623929
7119 7117 2.133276
7119 7118 -11.217129
7119 7119 18.707782
7120 2 -4.541262
7120 7089 -4.054065
7120 7120 18.626267
7120 7121 -11.205617
7120 7122 2.174676
7121 2 -0.551832
7121 6 -0.013755
7121 7120 -10.283536
7121 7121 23.503321
7121 7122 -11.654198
7122 2 -8.623221
7122 7120 1.335767
7122 7121 -11.211608
7122 7122 19.499061
7123 2 -4.571399
7123 7085 -4.054065
7123 7123 19.464123
7123 7124 -11.217433
7123 7125 1.378775
7124 2 -0.549337
7124 6 -0.013755
7124 7123 -11.582136
7124 7124 23.51957
7124 7125 -10.374342
7125 2 -8.623929
7125 7123 2.133276
7125 7124 -11.217129
7125 7125 18.707782
7126 2 -4.541262
7126 7089 -4.054065
7126 7126 18.626267
7126 7127 -11.205617
7126 7128 2.174676
7127 2 -0.551832
7127 6 -0.013755
7127 7126 -10.283536
7127 7127 23.503321
7127 7128 -11.654198
7128 2 -8.623221
7128 7126 1.335767
7128 7127 -11.211608
7128 7128 19.499061
7129 2 -4.571399
7129 7085 -4.054065
7129 7129 19.464123
7129 7130 -11.217433
7129 7131 1.378775
7130 2 -0.549337
7130 6 -0.013755
7130 7129 -11.582136
7130 7130 23.51957
7130 7131 -10.374342
7131 2 -8.623929
7131 7129 2.133276
7131 7130 -11.217129
7131 7131 18.707782
7132 2 -4.541262
7132 7089 -4.054065
7132 7132 18.626267
7132 7133 -11.205617
7132 7134 2.174676
7133 2 -0.551832
7133 6 -0.013755
7133 7132 -10.283536
7133 7133 23.503321
7133 7134 -11.654198
7134 2 -8.623221
7134 7132 1.335767
7134 7133 -11.211608
7134 7134 19.499061
7135 2 -4.571399
7135 7085 -4.054065
7135 7135 19.464123
7135 7136 -11.217433
7135 7137 1.378775
7136 2 -0.549337
7136 6 -0.013755
7136 7135 -11.582136
7136 7136 23.51957
7136 7137 -10.374342
7137 2 -8.623929
7137 7135 2.133276
7137 7136 -11.217129
7137 7137 18.707782
7138 2 -4.541262
7138 7089 -4.054065
7138 7138 18.626267
7138 7139 -11.205617
7138 7140 2.174676
7139 2 -0.551832
7139 6 -0.013755
7139 7138 -10.283536
7139 7139 23.503321
7139 7140 -11.654198
7140 2 -8.623221
7140 7138 1.335767
7140 7139 -11.211608
7140 7140 19.499061
7141 2 -4.571399
7141 7085 -4.054065
7141 7141 19.464123
7141 7142 -11.217433
7141 7143 1.378775
7142 2 -0.549337
7142 6 -0.013755
7142 7141 -11.582136
7142 7142 23.51957
7142 7143 -10.374342
7143 2 -8.623929
7143 7141 2.133276
7143 7142 -11.217129
7143 7143 18.707782
7144 2 -4.541262
7144 7089 -4.054065
7144 7144 18.626267
7144 7145 -11.205617
7144 7146 2.174676
7145 2 -0.551832
7145 6 -0.013755
7145 7144 -10.283536
7145 7145 23.503321
7145 7146 -11.654198
7146 2 -8.623221
7146 7144 1.335767
7146 7145 -11.211608
7146 7146 19.499061
7147 2 -4.571399
7147 7085 -4.054065
7147 7147 19.464123
7147 7148 -11.217433
7147 7149 1.378775
7148 2 -0.549337
7148 6 -0.013755
7148 7147 -11.582136
7148 7148 23.51957
7148 7149 -10.374342
7149 2 -8.623929
7149 7147 2.133276
7149 7148 -11.217129
7149 7149 18.707782
7150 2 -4.541262
7150 7089 -4.054065
7150 7150 18.626267
7150 7151 -11.205617
7150 7152 2.174676
7151 2 -0.551832
7151 6 -0.013755
7151 7150 -10.283536
7151 7151 23.503321
7151 7152 -11.654198
7152 2 -8.623221
7152 7150 1.335767
7152 7151 -11.211608
7152 7152 19.499061
7153 2 -4.571399
7153 7085 -4.054065
7153 7153 19.464123
7153 7154 -11.217433
7153 7155 1.378775
7154 2 -0.549337
7154 6 -0.013755
7154 7153 -11.582136
7154 7154 23.51957
7154 7155 -10.374342
7155 2 -8.623929
7155 7153 2.133276
7155 7154 -11.217129
7155 7155 18.707782
7156 2 -4.541262
7156 7089 -4.054065
7156 7156 18.626267
7156 7157 -11.205617
7156 7158 2.174676
7157 2 -0.551832
7157 6 -0.013755
7157 7156 -10.283536
7157 7157 23.503321
7157 7158 -11.654198
7158 2 -8.623221
7158 7156 1.335767
7158 7157 -11.211608
7158 7158 19.499061
7159 2 -4.571399
7159 7085 -4.054065
7159 7159 19.464123
7159 7160 -11.217433
7159 7161 1.378775
7160 2 -0.549337
7160 6 -0.013755
7160 7159 -11.582136
7160 7160 23.51957
7160 7161 -10.374342
7161 2 -8.623929
7161 7159 2.133276
7161 7160 -11.217129
7161 7161 18.707782
7162 2 -4.541262
7162 7089 -4.054065
7162 7162 18.626267
7162 7163 -11.205617
7162 7164 2.174676
7163 2 -0.551832
7163 6 -0.013755
7163 7162 -10.283536
7163 7163 23.503321
7163 7164 -11.654198
7164 2 -8.623221
7164 7162 1.335767
7164 7163 -11.211608
7164 7164 19.499061
7165 2 -4.571399
7165 7085 -4.054065
7165 7165 19.464123
7165 7166 -11.217433
7165 7167 1.378775
7166 2 -0.549337
7166 6 -0.013755
7166 7165 -11.582136
7166 7166 23.51957
7166 7167 -10.374342
7167 2 -8.623929
7167 7165 2.133276
7167 7166 -11.217129
7167 7167 18.707782
7168 2 -4.541262
7168 7089 -4.054065
7168 7168 18.626267
7168 7169 -11.205617
7168 7170 2.174676
7169 2 -0.551832
7169 6 -0.013755
7169 7168 -10.283536
7169 7169 23.503321
7169 7170 -11.654198
7170 2 -8.623221
7170 7168 1.335767
7170 7169 -11.211608
7170 7170 19.499061
7171 2 -4.571399
7171 7085 -4.054065
7171 7171 19.464123
7171 7172 -11.217433
7171 7173 1.378775
7172 2 -0.549337
7172 6 -0.013755
7172 7171 -11.582136
7172 7172 23.51957
7172 7173 -10.374342
7173 2 -8.623929
7173 7171 2.133276
7173 7172 -11.217129
7173 7173 18.707782
7174 2 -4.541262
7174 7089 -4.054065
7174 7174 18.626267
7174 7175 -11.205617
7174 7176 2.174676
7175 2 -0.551832
7175 6 -0.013755
7175 7174 -10.283536
7175 7175 23.503321
7175 7176 -11.654198
7176 2 -8.623221
7176 7174 1.335767
7176 7175 -11.211608
7176 7176 19.499061
7177 2 -4.571399
7177 7085 -4.054065
7177 7177 19.464123
7177 7178 -11.217433
7177 7179 1.378775
7178 2 -0.549337
7178 6 -0.013755
7178 7177 -11.582136
7178 7178 23.51957
7178 7179 -10.374342
7179 2 -8.623929
7179 7177 2.133276
7179 7178 -11.217129
7179 7179 18.707782
7180 2 -4.541262
7180 7089 -4.054065
7180 7180 18.626267
7180 7181 -11.205617
7180 7182 2.174676
7181 2 -0.551832
7181 6 -0.013755
7181 7180 -10.283536
7181 7181 23.503321
7181 7182 -11.654198
7182 2 -8.623221
7182 7180 1.335767
7182 7181 -11.211608
7182 7182 19.499061
7183 2 -4.571399
7183 7085 -4.054065
7183 7183 19.464123
7183 7184 -11.217433
7183 7185 1.378775
7184 2 -0.549337
7184 6 -0.013755
7184 7183 -11.582136
7184 7184 23.51957
7184 7185 -10.374342
7185 2 -8.623929
7185 7183 2.133276
7185 7184 -11.217129
7185 7185 18.707782
7186 2 -4.541262
7186 7089 -4.054065
7186 7186 18.626267
7186 7187 -11.205617
7186 7188 2.174676
7187 2 -0.551832
7187 6 -0.013755
7187 7186 -10.283536
7187 7187 23.503321
7187 7188 -11.654198
7188 2 -8.623221
7188 7186 1.335767
7188 7187 -11.211608
7188 7188 19.499061
7189 2 -4.571399
7189 7085 -4.054065
7189 7189 19.464123
7189 7190 -11.217433
7189 7191 1.378775
7190 2 -0.549337
7190 6 -0.013755
7190 7189 -11.582136
7190 7190 23.51957
7190 7191 -10.374342
7191 2 -8.623929
7191 7189 2.133276
7191 7190 -11.217129
7191 7191 18.707782
7192 2 -4.541262
7192 7089 -4.054065
7192 7192 18.626267
7192 7193 -11.205617
7192 7194 2.174676
7193 2 -0.551832
7193 6 -0.013755
7193 7192 -10.283536
7193 7193 23.503321
7193 7194 -11.654198
7194 2 -8.623221
7194 7192 1.335767
7194 7193 -11.211608
7194 7194 19.499061
7195 2 -4.571399
7195 7085 -4.054065
7195 7195 19.464123
7195 7196 -11.217433
7195 7197 1.378775
7196 2 -0.549337
7196 6 -0.013755
7196 7195 -11.582136
7196 7196 23.51957
7196 7197 -10.374342
7197 2 -8.623929
7197 7195 2.133276
7197 7196 -11.217129
7197 7197 18.707782
7198 2 -4.541262
7198 7089 -4.054065
7198 7198 18.626267
7198 7199 -11.205617
7198 7200 2.174676
7199 2 -0.551832
7199 6 -0.013755
7199 7198 -10.283536
7199 7199 23.503321
7199 7200 -11.654198
7200 2 -8.623221
7200 7198 1.335767
7200 7199 -11.211608
7200 7200 19.499061
7201 2 -4.571399
7201 7085 -4.054065
7201 7201 19.464123
7201 7202 -11.217433
7201 7203 1.378775
7202 2 -0.549337
7202 6 -0.013755
7202 7201 -11.582136
7202 7202 23.51957
7202 7203 -10.374342
7203 2 -8.623929
7203 7201 2.133276
7203 7202 -11.217129
7203 7203 18.707782
7204 2 -4.541262
7204 7089 -4.054065
7204 7204 18.626267
7204 7205 -11.205617
7204 7206 2.174676
7205 2 -0.551832
7205 6 -0.013755
7205 7204 -10.283536
7205 7205 23.503321
7205 7206 -11.654198
7206 2 -8.623221
7206 7204 1.335767
7206 7205 -11.211608
7206 7206 19.499061
7207 2 -4.571399
7207 7085 -4.054065
7207 7207 19.464123
7207 7208 -11.217433
7207 7209 1.378775
7208 2 -0.549337
7208 6 -0.013755
7208 7207 -11.582136
7208 7208 23.51957
7208 7209 -10.374342
7209 2 -8.623929
7209 7207 2.133276
7209 7208 -11.217129
7209 7209 18.707782
7210 2 -4.541262
7210 7089 -4.054065
7210 7210 18.626267
7210 7211 -11.205617
7210 7212 2.174676
7211 2 -0.551832
7211 6 -0.013755
7211 7210 -10.283536
7211 7211 23.503321
7211 7212 -11.654198
7212 2 -8.623221
7212 7210 1.335767
7212 7211 -11.211608
7212 7212 19.499061
7213 2 -4.571399
7213 7085 -4.054065
7213 7213 19.464123
7213 7214 -11.217433
7213 7215 1.378775
7214 2 -0.549337
7214 6 -0.013755
7214 7213 -11.582136
7214 7214 23.51957
7214 7215 -10.374342
7215 2 -8.623929
7215 7213 2.133276
7215 7214 -11.217129
7215 7215 18.707782
7216 2 -4.541262
7216 7089 -4.054065
7216 7216 18.626267
7216 7217 -11.205617
7216 7218 2.174676
7217 2 -0.551832
7217 6 -0.013755
7217 7216 -10.283536
7217 7217 23.503321
7217 7218 -11.654198
7218 2 -8.623221
7218 7216 1.335767
7218 7217 -11.211608
7218 7218 19.499061
7219 2 -4.571399
7219 7085 -4.054065
7219 7219 19.464123
7219 7220 -11.217433
7219 7221 1.378775
7220 2 -0.549337
7220 6 -0.013755
7220 7219 -11.582136
7220 7220 23.51957
7220 7221 -10.374342
7221 2 -8.623929
7221 7219 2.133276
7221 7220 -11.217129
7221 7221 18.707782
7222 2 -4.541262
7222 7089 -4.054065
7222 7222 18.626267
7222 7223 -11.205617
7222 7224 2.174676
7223 2 -0.551832
7223 6 -0.013755
7223 7222 -10.283536
7223 7223 23.503321
7223 7224 -11.654198
7224 2 -8.623221
7224 7222 1.335767
7224 7223 -11.211608
7224 7224 19.499061
7225 2 -4.571399
7225 7085 -4.054065
7225 7225 19.464123
7225 7226 -11.217433
7225 7227 1.378775
7226 2 -0.549337
7226 6 -0.013755
7226 7225 -11.582136
7226 7226 23.51957
7226 7227 -10.374342
7227 2 -8.623929
7227 7225 2.133276
7227 7226 -11.217129
7227 7227 18.707782
7228 2 -4.541262
7228 7089 -4.054065
7228 7228 18.626267
7228 7229 -11.205617
7228 7230 2.174676
7229 2 -0.551832
7229 6 -0.013755
7229 7228 -10.283536
7229 7229 23.503321
7229 7230 -11.654198
7230 2 -8.623221
7230 7228 1.335767
7230 7229 -11.211608
7230 7230 19.499061
7231 2 -4.571399
7231 7085 -4.054065
7231 7231 19.464123
7231 7232 -11.217433
7231 7233 1.378775
7232 2 -0.549337
7232 6 -0.013755
7232 7231 -11.582136
7232 7232 23.51957
7232 7233 -10.374342
7233 2 -8.623929
7233 7231 2.133276
7233 7232 -11.217129
7233 7233 18.707782
7234 2 -4.541262
7234 7089 -4.054065
7234 7234 18.626267
7234 7235 -11.205617
7234 7236 2.174676
7235 2 -0.551832
7235 6 -0.013755
7235 7234 -10.283536
7235 7235 23.503321
7235 7236 -11.654198
7236 2 -8.623221
7236 7234 1.335767
7236 7235 -11.211608
7236 7236 19.499061
7237 2 -4.571399
7237 7085 -4.054065
7237 7237 19.464123
7237 7238 -11.217433
7237 7239 1.378775
7238 2 -0.549337
7238 6 -0.013755
7238 7237 -11.582136
7238 7238 23.51957
7238 7239 -10.374342
7239 2 -8.623929
7239 7237 2.133276
7239 7238 -11.217129
7239 7239 18.707782
7240 2 -4.541262
7240 7089 -4.054065
7240 7240 18.626267
7240 7241 -11.205617
7240 7242 2.174676
7241 2 -0.551832
7241 6 -0.013755
7241 7240 -10.283536
7241 7241 23.503321
7241 7242 -11.654198
7242 2 -8.623221
7242 7240 1.335767
7242 7241 -11.211608
7242 7242 19.499061
7243 2 -4.571399
7243 7085 -4.054065
7243 7243 19.464123
7243 7244 -11.217433
7243 7245 1.378775
7244 2 -0.549337
7244 6 -0.013755
7244 7243 -11.582136
7244 7244 23.51957
7244 7245 -10.374342
7245 2 -8.623929
7245 7243 2.133276
7245 7244 -11.217129
7245 7245 18.707782
7246 2 -4.541262
7246 7089 -4.054065
7246 7246 18.626267
7246 7247 -11.205617
7246 7248 2.174676
7247 2 -0.551832
7247 6 -0.013755
7247 7246 -10.283536
7247 7247 23.503321
7247 7248 -11.654198
7248 2 -8.623221
7248 7246 1.335767
7248 7247 -11.211608
7248 7248 19.499061
7249 2 -4.571399
7249 7085 -4.054065
7249 7249 19.464123
7249 7250 -11.217433
7249 7251 1.378775
7250 2 -0.549337
7250 6 -0.013755
7250 7249 -11.582136
7250 7250 23.51957
7250 7251 -10.374342
7251 2 -8.623929
7251 7249 2.133276
7251 7250 -11.217129
7251 7251 18.707782
7252 2 -4.541262
7252 7089 -4.054065
7252 7252 18.626267
7252 7253 -11.205617
7252 7254 2.174676
7253 2 -0.551832
7253 6 -0.013755
7253 7252 -10.283536
7253 7253 23.503321
7253 7254 -11.654198
7254 2 -8.623221
7254 7252 1.335767
7254 7253 -11.211608
7254 7254 19.499061
7255 2 -4.571399
7255 7085 -4.054065
7255 7255 19.464123
7255 7256 -11.217433
7255 7257 1.378775
7256 2 -0.549337
7256 6 -0.013755
7256 7255 -11.582136
7256 7256 23.51957
7256 7257 -10.374342
7257 2 -8.623929
7257 7255 2.133276
7257 7256 -11.217129
7257 7257 18.707782
7258 2 -4.541262
7258 7089 -4.054065
7258 7258 18.626267
7258 7259 -11.205617
7258 7260 2.174676
7259 2 -0.551832
7259 6 -0.013755
7259 7258 -10.283536
7259 7259 23.503321
7259 7260 -11.654198
7260 2 -8.623221
7260 7258 1.335767
7260 7259 -11.211608
7260 7260 19.499061
7261 2 -4.571399
7261 7085 -4.054065
7261 7261 19.464123
7261 7262 -11.217433
7261 7263 1.378775
7262 2 -0.549337
7262 6 -0.013755
7262 7261 -11.582136
7262 7262 23.51957
7262 7263 -10.374342
7263 2 -8.623929
7263 7261 2.133276
7263 7262 -11.217129
7263 7263 18.707782
7264 2 -4.541262
7264 7089 -4.054065
7264 7264 18.626267
7264 7265 -11.205617
7264 7266 2.174676
7265 2 -0.551832
7265 6 -0.013755
7265 7264 -10.283536
7265 7265 23.503321
7265 7266 -11.654198
7266 2 -8.623221
7266 7264 1.335767
7266 7265 -11.211608
7266 7266 19.499061
7267 2 -4.571399
7267 7085 -4.054065
7267 7267 19.464123
7267 7268 -11.217433
7267 7269 1.378775
7268 2 -0.549337
7268 6 -0.013755
7268 7267 -11.582136
7268 7268 23.51957
7268 7269 -10.374342
7269 2 -8.623929
7269 7267 2.133276
7269 7268 -11.217129
7269 7269 18.707782
7270 2 -4.541262
7270 7089 -4.054065
7270 7270 18.626267
7270 7271 -11.205617
7270 7272 2.174676
7271 2 -0.551832
7271 6 -0.013755
7271 7270 -10.283536
7271 7271 23.503321
7271 7272 -11.654198
7272 2 -8.623221
7272 7270 1.335767
7272 7271 -11.211608
7272 7272 19.499061
7273 2 -4.571399
7273 7085 -4.054065
7273 7273 19.464123
7273 7274 -11.217433
7273 7275 1.378775
7274 2 -0.549337
7274 6 -0.013755
7274 7273 -11.582136
7274 7274 23.51957
7274 7275 -10.374342
7275 2 -8.623929
7275 7273 2.133276
7275 7274 -11.217129
7275 7275 18.707782
7276 2 -4.541262
7276 7089 -4.054065
7276 7276 18.626267
7276 7277 -11.205617
7276 7278 2.174676
7277 2 -0.551832
7277 6 -0.013755
7277 7276 -10.283536
7277 7277 23.503321
7277 7278 -11.654198
7278 2 -8.623221
7278 7276 1.335767
7278 7277 -11.211608
7278 7278 19.499061
7279 2 -4.571399
7279 7085 -4.054065
7279 7279 19.464123
7279 7280 -11.217433
7279 7281 1.378775
7280 2 -0.549337
7280 6 -0.013755
7280 7279 -11.582136
7280 7280 23.51957
7280 7281 -10.374342
7281 2 -8.623929
7281 7279 2.133276
7281 7280 -11.217129
7281 7281 18.707782
7282 2 -4.541262
7282 7089 -4.054065
7282 7282 18.626267
7282 7283 -11.205617
7282 7284 2.174676
7283 2 -0.551832
7283 6 -0.013755
7283 7282 -10.283536
7283 7283 23.503321
7283 7284 -11.654198
7284 2 -8.623221
7284 7282 1.335767
7284 7283 -11.211608
7284 7284 19.499061
7285 2 -4.571399
7285 7085 -4.054065
7285 7285 19.464123
7285 7286 -11.217433
7285 7287 1.378775
7286 2 -0.549337
7286 6 -0.013755
7286 7285 -11.582136
7286 7286 23.51957
7286 7287 -10.374342
7287 2 -8.623929
7287 7285 2.133276
7287 7286 -11.217129
7287 7287 18.707782
7288 2 -4.541262
7288 7089 -4.054065
7288 7288 18.626267
7288 7289 -11.205617
7288 7290 2.174676
7289 2 -0.551832
7289 6 -0.013755
7289 7288 -10.283536
7289 7289 23.503321
7289 7290 -11.654198
7290 2 -8.623221
7290 7288 1.335767
7290 7289 -11.211608
7290 7290 19.499061
7291 2 -4.571399
7291 7085 -4.054065
7291 7291 19.464123
7291 7292 -11.217433
7291 7293 1.378775
7292 2 -0.549337
7292 6 -0.013755
7292 7291 -11.582136
7292 7292 23.51957
7292 7293 -10.374342
7293 2 -8.623929
7293 7291 2.133276
7293 7292 -11.217129
7293 7293 18.707782
7294 2 -4.541262
7294 7089 -4.054065
7294 7294 18.626267
7294 7295 -11.205617
7294 7296 2.174676
7295 2 -0.551832
7295 6 -0.013755
7295 7294 -10.283536
7295 7295 23.503321
7295 7296 -11.654198
7296 2 -8.623221
7296 7294 1.335767
7296 7295 -11.211608
7296 7296 19.499061
7297 2 -4.571399
7297 7085 -4.054065
7297 7297 19.464123
7297 7298 -11.217433
7297 7299 1.378775
7298 2 -0.549337
7298 6 -0.013755
7298 7297 -11.582136
7298 7298 23.51957
7298 7299 -10.374342
7299 2 -8.623929
7299 7297 2.133276
7299 7298 -11.217129
7299 7299 18.707782
7300 2 -4.541262
7300 7089 -4.054065
7300 7300 18.626267
7300 7301 -11.205617
7300 7302 2.174676
7301 2 -0.551832
7301 6 -0.013755
7301 7300 -10.283536
7301 7301 23.503321
7301 7302 -11.654198
7302 2 -8.623221
7302 7300 1.335767
7302 7301 -11.211608
7302 7302 19.499061
7303 2 -4.571399
7303 7085 -4.054065
7303 7303 19.464123
7303 7304 -11.217433
7303 7305 1.378775
7304 2 -0.549337
7304 6 -0.013755
7304 7303 -11.582136
7304 7304 23.51957
7304 7305 -10.374342
7305 2 -8.623929
7305 7303 2.133276
7305 7304 -11.217129
7305 7305 18.707782
7306 2 -4.541262
7306 7089 -4.054065
7306 7306 18.626267
7306 7307 -11.205617
7306 7308 2.174676
7307 2 -0.551832
7307 6 -0.013755
7307 7306 -10.283536
7307 7307 23.503321
7307 7308 -11.654198
7308 2 -8.623221
7308 7306 1.335767
7308 7307 -11.211608
7308 7308 19.499061
7309 2 -4.571399
7309 7085 -4.054065
7309 7309 19.464123
7309 7310 -11.217433
7309 7311 1.378775
7310 2 -0.549337
7310 6 -0.013755
7310 7309 -11.582136
7310 7310 23.51957
7310 7311 -10.374342
7311 2 -8.623929
7311 7309 2.133276
7311 7310 -11.217129
7311 7311 18.707782
7312 2 -4.541262
7312 7089 -4.054065
7312 7312 18.626267
7312 7313 -11.205617
7312 7314 2.174676
7313 2 -0.551832
7313 6 -0.013755
7313 7312 -10.283536
7313 7313 23.503321
7313 7314 -11.654198
7314 2 -8.623221
7314 7312 1.335767
7314 7313 -11.211608
7314 7314 19.499061
7315 2 -4.571399
7315 7085 -4.054065
7315 7315 19.464123
7315 7316 -11.217433
7315 7317 1.378775
7316 2 -0.549337
7316 6 -0.013755
7316 7315 -11.582136
7316 7316 23.51957
7316 7317 -10.374342
7317 2 -8.623929
7317 7315 2.133276
7317 7316 -11.217129
7317 7317 18.707782
7318 2 -4.541262
7318 7089 -4.054065
7318 7318 18.626267
7318 7319 -11.205617
7318 7320 2.174676
7319 2 -0.551832
7319 6 -0.013755
7319 7318 -10.283536
7319 7319 23.503321
7319 7320 -11.654198
7320 2 -8.623221
7320 7318 1.335767
7320 7319 -11.211608
7320 7320 19.499061
7321 2 -4.571399
7321 7085 -4.054065
7321 7321 19.464123
7321 7322 -11.217433
7321 7323 1.378775
7322 2 -0.549337
7322 6 -0.013755
7322 7321 -11.582136
7322 7322 23.51957
7322 7323 -10.374342
7323 2 -8.623929
7323 7321 2.133276
7323 7322 -11.217129
7323 7323 18.707782
7324 2 -4.541262
7324 7089 -4.054065
7324 7324 18.626267
7324 7325 -11.205617
7324 7326 2.174676
7325 2 -0.551832
7325 6 -0.013755
7325 7324 -10.283536
7325 7325 23.503321
7325 7326 -11.654198
7326 2 -8.623221
7326 7324 1.335767
7326 7325 -11.211608
7326 7326 19.499061
7327 2 -4.571399
7327 7085 -4.054065
7327 7327 19.464123
7327 7328 -11.217433
7327 7329 1.378775
7328 2 -0.549337
7328 6 -0.013755
7328 7327 -11.582136
7328 7328 23.51957
7328 7329 -10.374342
7329 2 -8.623929
7329 7327 2.133276
7329 7328 -11.217129
7329 7329 18.707782
7330 2 -4.541262
7330 7089 -4.054065
7330 7330 18.626267
7330 7331 -11.205617
7330 7332 2.174676
7331 2 -0.551832
7331 6 -0.013755
7331 7330 -10.283536
7331 7331 23.503321
7331 7332 -11.654198
7332 2 -8.623221
7332 7330 1.335767
7332 7331 -11.211608
7332 7332 19.499061
7333 2 -4.571399
7333 7085 -4.054065
7333 7333 19.464123
7333 7334 -11.217433
7333 7335 1.378775
7334 2 -0.549337
7334 6 -0.013755
7334 7333 -11.582136
7334 7334 23.51957
7334 7335 -10.374342
7335 2 -8.623929
7335 7333 2.133276
7335 7334 -11.217129
7335 7335 18.707782
7336 2 -4.541262
7336 7089 -4.054065
7336 7336 18.626267
7336 7337 -11.205617
7336 7338 2.174676
7337 2 -0.551832
7337 6 -0.013755
7337 7336 -10.283536
7337 7337 23.503321
7337 7338 -11.654198
7338 2 -8.623221
7338 7336 1.335767
7338 7337 -11.211608
7338 7338 19.499061
7339 2 -4.571399
7339 7085 -4.054065
7339 7339 19.464123
7339 7340 -11.217433
7339 7341 1.378775
7340 2 -0.549337
7340 6 -0.013755
7340 7339 -11.582136
7340 7340 23.51957
7340 7341 -10.374342
7341 2 -8.623929
7341 7339 2.133276
7341 7340 -11.217129
7341 7341 18.707782
7342 2 -4.541262
7342 7089 -4.054065
7342 7342 18.626267
7342 7343 -11.205617
7342 7344 2.174676
7343 2 -0.551832
7343 6 -0.013755
7343 7342 -10.283536
7343 7343 23.503321
7343 7344 -11.654198
7344 2 -8.623221
7344 7342 1.335767
7344 7343 -11.211608
7344 7344 19.499061
7345 2 -4.571399
7345 7085 -4.054065
7345 7345 19.464123
7345 7346 -11.217433
7345 7347 1.378775
7346 2 -0.549337
7346 6 -0.013755
7346 7345 -11.582136
7346 7346 23.51957
7346 7347 -10.374342
7347 2 -8.623929
7347 7345 2.133276
7347 7346 -11.217129
7347 7347 18.707782
7348 2 -4.541262
7348 7089 -4.054065
7348 7348 18.626267
7348 7349 -11.205617
7348 7350 2.174676
7349 2 -0.551832
7349 6 -0.013755
7349 7348 -10.283536
7349 7349 23.503321
7349 7350 -11.654198
7350 2 -8.623221
7350 7348 1.335767
7350 7349 -11.211608
7350 7350 19.499061
7351 2 -6.96848
7351 7085 -2.674898
7351 7351 20.482037
7351 7352 -11.217433
7351 7353 1.378775
7352 2 -0.549337
7352 6 -0.013755
7352 7351 -11.582134
7352 7352 23.51957
7352 7353 -10.374343
7353 2 -8.623929
7353 7351 2.133275
7353 7352 -11.217129
7353 7353 18.707783
7354 2 -6.921909
7354 7089 -2.674898
7354 7354 19.627765
7354 7355 -11.205621
7354 7356 2.174663
7355 2 -0.551831
7355 6 -0.013755
7355 7354 -10.283566
7355 7355 23.503327
7355 7356 -11.654175
7356 2 -8.623221
7356 7354 1.335781
7356 7355 -11.21161
7356 7356 19.499049
7357 2 -1.006379
7357 6898 -1.216214
7357 7357 4.907533
7357 7358 -1.740512
7357 7359 0.055571
7358 2 -0.318167
7358 6897 -0.045872
7358 7357 -1.671299
7358 7358 5.035106
7358 7359 -1.999769
7359 2 -2.027444
7359 7085 -0.802472
7359 7357 -0.003766
7359 7358 -1.955017
7359 7359 5.788699
7360 2 -1.342522
7360 6897 -1.216214
7360 7360 6.163064
7360 7361 -3.322066
7360 7362 0.717737
7361 2 -0.16384
7361 6898 -0.045872
7361 7360 -2.910786
7361 7361 7.72473
7361 7362 -3.604233
7362 2 -2.073163
7362 7089 -0.802472
7362 7360 0.308748
7362 7361 -3.338801
7362 7362 6.905687
7363 2 -1.006378
7363 6898 -1.216214
7363 7363 4.907534
7363 7364 -1.740502
7363 7365 0.05556
7364 2 -0.318173
7364 6897 -0.045872
7364 7363 -1.6713
7364 7364 5.035082
7364 7365 -1.999737
7365 2 -1.420123
7365 7085 -1.216214
7365 7363 -0.003765
7365 7364 -1.955001
7365 7365 5.595103
7366 2 -1.342523
7366 6897 -1.216214
7366 7366 6.163011
7366 7367 -3.322042
7366 7368 0.717767
7367 2 -0.163851
7367 6898 -0.045872
7367 7366 -2.9107
7367 7367 7.724692
7367 7368 -3.60427
7368 2 -1.46987
7368 7089 -1.216214
7368 7366 0.30871
7368 7367 -3.338785
7368 7368 6.716159
7369 2 -1.006378
7369 6898 -1.216214
7369 7369 4.907534
7369 7370 -1.740502
7369 7371 0.05556
7370 2 -0.318173
7370 6897 -0.045872
7370 7369 -1.6713
7370 7370 5.035082
7370 7371 -1.999737
7371 2 -1.420123
7371 7085 -1.216214
7371 7369 -0.003765
7371 7370 -1.955001
7371 7371 5.595103
7372 2 -1.342523
7372 6897 -1.216214
7372 7372 6.163011
7372 7373 -3.322042
7372 7374 0.717767
7373 2 -0.163851
7373 6898 -0.045872
7373 7372 -2.9107
7373 7373 7.724692
7373 7374 -3.60427
7374 2 -1.46987
7374 7089 -1.216214
7374 7372 0.30871
7374 7373 -3.338785
7374 7374 6.716159
7375 2 -1.006378
7375 6898 -1.216214
7375 7375 4.907534
7375 7376 -1.740502
7375 7377 0.05556
7376 2 -0.318173
7376 6897 -0.045872
7376 7375 -1.6713
7376 7376 5.035082
7376 7377 -1.999737
7377 2 -1.420123
7377 7085 -1.216214
7377 7375 -0.003765
7377 7376 -1.955001
7377 7377 5.595103
7378 2 -1.342523
7378 6897 -1.216214
7378 7378 6.163011
7378 7379 -3.322042
7378 7380 0.717767
7379 2 -0.163851
7379 6898 -0.045872
7379 7378 -2.9107
7379 7379 7.724692
7379 7380 -3.60427
7380 2 -1.46987
7380 7089 -1.216214
7380 7378 0.30871
7380 7379 -3.338785
7380 7380 6.716159
7381 2 -1.006378
7381 6898 -1.216214
7381 7381 4.907534
7381 7382 -1.740502
7381 7383 0.05556
7382 2 -0.318173
7382 6897 -0.045872
7382 7381 -1.6713
7382 7382 5.035082
7382 7383 -1.999737
7383 2 -1.420123
7383 7085 -1.216214
7383 7381 -0.003765
7383 7382 -1.955001
7383 7383 5.595103
7384 2 -1.342523
7384 6897 -1.216214
7384 7384 6.163011
7384 7385 -3.322042
7384 7386 0.717767
7385 2 -0.163851
7385 6898 -0.045872
7385 7384 -2.9107
7385 7385 7.724692
7385 7386 -3.60427
7386 2 -1.46987
7386 7089 -1.216214
7386 7384 0.30871
7386 7385 -3.338785
7386 7386 6.716159
7387 2 -1.006379
7387 6898 -1.216214
7387 7387 4.907533
7387 7388 -1.740513
7387 7389 0.055572
7388 2 -0.318167
7388 6897 -0.045872
7388 7387 -1.671299
7388 7388 5.035108
7388 7389 -1.99977
7389 2 -2.364958
7389 7085 -0.789478
7389 7387 -0.003766
7389 7388 -1.955018
7389 7389 6.11322
7390 2 -1.342522
7390 6897 -1.216214
7390 7390 6.163067
7390 7391 -3.322067
7390 7392 0.717736
7391 2 -0.16384
7391 6898 -0.045872
7391 7390 -2.91079
7391 7391 7.724732
7391 7392 -3.604231
7392 2 -2.407448
7392 7089 -0.789478
7392 7390 0.30875
7392 7391 -3.338802
7392 7392 7.226978
7393 2 -0.566219
7393 6898 -0.608106
7393 7393 3.078223
7393 7394 -1.333938
7393 7395 0.43004
7394 2 -0.111005
7394 6894 -0.091743
7394 7393 -0.891588
7394 7394 3.988199
7394 7395 -1.893863
7395 2 -1.719721
7395 7393 -0.0263
7395 7394 -1.539299
7395 7395 4.285321
7396 2 -0.566219
7396 6898 -0.608106
7396 7396 3.078223
7396 7397 -1.333938
7396 7398 0.43004
7397 2 -0.111005
7397 6894 -0.091743
7397 7396 -0.891588
7397 7397 3.988199
7397 7398 -1.893863
7398 2 -1.719721
7398 7396 -0.0263
7398 7397 -1.539299
7398 7398 4.285321
7399 2 -0.709977
7399 6897 -0.608106
7399 7399 3.234473
7399 7400 -0.919712
7399 7401 0.003322
7400 2 -0.167891
7400 6896 -0.091743
7400 7399 -0.910024
7400 7400 3.113937
7400 7401 -0.944278
7401 2 -1.698781
7401 7399 -0.000214
7401 7400 -0.941485
7401 7401 3.640479
7402 2 -0.709977
7402 6897 -0.608106
7402 7402 3.234473
7402 7403 -0.919712
7402 7404 0.003322
7403 2 -0.167891
7403 6896 -0.091743
7403 7402 -0.910024
7403 7403 3.113937
7403 7404 -0.944278
7404 2 -1.698781
7404 7402 -0.000214
7404 7403 -0.941485
7404 7404 3.640479
7405 2 -2.305459
7405 6991 -2.837837
7405 7405 10.312678
7405 7406 -6.540964
7405 7407 2.371583
7406 2 -0.588003
7406 6898 -0.021413
7406 7405 -4.103846
7406 7406 15.460222
7406 7407 -9.74696
7407 2 -7.142105
7407 7405 -0.138279
7407 7406 -7.698614
7407 7407 15.978997
7408 2 -2.638642
7408 6995 -2.837837
7408 7408 10.668837
7408 7409 -4.283438
7408 7410 0.091081
7409 2 -0.888183
7409 6897 -0.021413
7409 7408 -4.158991
7409 7409 10.649916
7409 7410 -4.581329
7410 2 -7.028723
7410 7408 -0.005687
7410 7409 -4.508724
7410 7410 12.543135
7411 2 -2.305471
7411 6991 -2.837837
7411 7411 10.312689
7411 7412 -6.54097
7411 7413 2.371589
7412 2 -0.588041
7412 6898 -0.021413
7412 7411 -4.103864
7412 7412 15.460232
7412 7413 -9.746913
7413 2 -6.050036
7413 7411 -0.138271
7413 7412 -7.698616
7413 7413 14.886924
7414 2 -2.638641
7414 6995 -2.837837
7414 7414 10.668837
7414 7415 -4.283417
7414 7416 0.091059
7415 2 -0.8882
7415 6897 -0.021413
7415 7414 -4.158993
7415 7415 10.649869
7415 7416 -4.581263
7416 2 -5.935764
7416 7414 -0.005685
7416 7415 -4.508692
7416 7416 11.450142
7417 2 -2.305471
7417 6991 -2.837837
7417 7417 10.312689
7417 7418 -6.54097
7417 7419 2.371589
7418 2 -0.588041
7418 6898 -0.021413
7418 7417 -4.103864
7418 7418 15.460232
7418 7419 -9.746913
7419 2 -6.050036
7419 7417 -0.138271
7419 7418 -7.698616
7419 7419 14.886924
7420 2 -2.638641
7420 6995 -2.837837
7420 7420 10.668837
7420 7421 -4.283417
7420 7422 0.091059
7421 2 -0.8882
7421 6897 -0.021413
7421 7420 -4.158993
7421 7421 10.649869
7421 7422 -4.581263
7422 2 -5.935764
7422 7420 -0.005685
7422 7421 -4.508692
7422 7422 11.450142
7423 2 -2.305459
7423 6991 -2.837837
7423 7423 10.312678
7423 7424 -6.540964
7423 7425 2.371583
7424 2 -0.588003
7424 6898 -0.021413
7424 7423 -4.103846
7424 7424 15.460222
7424 7425 -9.74696
7425 2 -7.142105
7425 7423 -0.138279
7425 7424 -7.698614
7425 7425 15.978997
7426 2 -2.638642
7426 6995 -2.837837
7426 7426 10.668837
7426 7427 -4.283438
7426 7428 0.091081
7427 2 -0.888183
7427 6897 -0.021413
7427 7426 -4.158991
7427 7427 10.649916
7427 7428 -4.581329
7428 2 -7.028723
7428 7426 -0.005687
7428 7427 -4.508724
7428 7428 12.543135
7429 2 -3.352079
7429 7017 -3.162165
7429 7429 14.750195
7429 7430 -9.370411
7429 7431 2.134461
7430 2 -0.497963
7430 6991 -0.019231
7430 7429 -8.230633
7430 7430 19.853511
7430 7431 -10.105685
7431 2 -7.996121
7431 7429 1.036988
7431 7430 -9.409118
7431 7431 17.36825
7432 2 -2.370123
7432 7021 -3.162165
7432 7432 10.725309
7432 7433 -6.546071
7432 7434 2.35305
7433 2 -0.764692
7433 6995 -0.019231
7433 7432 -4.106387
7433 7433 16.087529
7433 7434 -10.197219
7434 2 -7.904119
7434 7432 -0.148014
7434 7433 -8.177618
7434 7434 17.22975
7435 2 -3.352085
7435 7017 -3.162165
7435 7435 14.750081
7435 7436 -9.370363
7435 7437 2.134532
7436 2 -0.49798
7436 6991 -0.019231
7436 7435 -8.230444
7436 7436 19.853437
7436 7437 -10.105783
7437 2 -6.788539
7437 7435 1.036902
7437 7436 -9.409086
7437 7437 16.160723
7438 2 -2.370129
7438 7021 -3.162165
7438 7438 10.725304
7438 7439 -6.546196
7438 7440 2.353186
7439 2 -0.764686
7439 6995 -0.019231
7439 7438 -4.106375
7439 7439 16.087814
7439 7440 -10.197522
7440 2 -6.696271
7440 7438 -0.148022
7440 7439 -8.177807
7440 7440 16.0221
7441 2 -3.352085
7441 7017 -3.162165
7441 7441 14.750081
7441 7442 -9.370363
7441 7443 2.134532
7442 2 -0.49798
7442 6991 -0.019231
7442 7441 -8.230444
7442 7442 19.853437
7442 7443 -10.105783
7443 2 -6.788539
7443 7441 1.036902
7443 7442 -9.409086
7443 7443 16.160723
7444 2 -2.370129
7444 7021 -3.162165
7444 7444 10.725304
7444 7445 -6.546196
7444 7446 2.353186
7445 2 -0.764686
7445 6995 -0.019231
7445 7444 -4.106375
7445 7445 16.087814
7445 7446 -10.197522
7446 2 -6.696271
7446 7444 -0.148022
7446 7445 -8.177807
7446 7446 16.0221
7447 2 -3.352085
7447 7017 -3.162165
7447 7447 14.750081
7447 7448 -9.370363
7447 7449 2.134532
7448 2 -0.49798
7448 6991 -0.019231
7448 7447 -8.230444
7448 7448 19.853437
7448 7449 -10.105783
7449 2 -6.788539
7449 7447 1.036902
7449 7448 -9.409086
7449 7449 16.160723
7450 2 -2.370129
7450 7021 -3.162165
7450 7450 10.725304
7450 7451 -6.546196
7450 7452 2.353186
7451 2 -0.764686
7451 6995 -0.019231
7451 7450 -4.106375
7451 7451 16.087814
7451 7452 -10.197522
7452 2 -6.696271
7452 7450 -0.148022
7452 7451 -8.177807
7452 7452 16.0221
7453 2 -3.352085
7453 7017 -3.162165
7453 7453 14.750081
7453 7454 -9.370363
7453 7455 2.134532
7454 2 -0.49798
7454 6991 -0.019231
7454 7453 -8.230444
7454 7454 19.853437
7454 7455 -10.105783
7455 2 -6.788539
7455 7453 1.036902
7455 7454 -9.409086
7455 7455 16.160723
7456 2 -2.370129
7456 7021 -3.162165
7456 7456 10.725304
7456 7457 -6.546196
7456 7458 2.353186
7457 2 -0.764686
7457 6995 -0.019231
7457 7456 -4.106375
7457 7457 16.087814
7457 7458 -10.197522
7458 2 -6.696271
7458 7456 -0.148022
7458 7457 -8.177807
7458 7458 16.0221
7459 2 -3.352085
7459 7017 -3.162165
7459 7459 14.750081
7459 7460 -9.370363
7459 7461 2.134532
7460 2 -0.49798
7460 6991 -0.019231
7460 7459 -8.230444
7460 7460 19.853437
7460 7461 -10.105783
7461 2 -6.788539
7461 7459 1.036902
7461 7460 -9.409086
7461 7461 16.160723
7462 2 -2.370129
7462 7021 -3.162165
7462 7462 10.725304
7462 7463 -6.546196
7462 7464 2.353186
7463 2 -0.764686
7463 6995 -0.019231
7463 7462 -4.106375
7463 7463 16.087814
7463 7464 -10.197522
7464 2 -6.696271
7464 7462 -0.148022
7464 7463 -8.177807
7464 7464 16.0221
7465 2 -3.352085
7465 7017 -3.162165
7465 7465 14.750081
7465 7466 -9.370363
7465 7467 2.134532
7466 2 -0.49798
7466 6991 -0.019231
7466 7465 -8.230444
7466 7466 19.853437
7466 7467 -10.105783
7467 2 -6.788539
7467 7465 1.036902
7467 7466 -9.409086
7467 7467 16.160723
7468 2 -2.370129
7468 7021 -3.162165
7468 7468 10.725304
7468 7469 -6.546196
7468 7470 2.353186
7469 2 -0.764686
7469 6995 -0.019231
7469 7468 -4.106375
7469 7469 16.087814
7469 7470 -10.197522
7470 2 -6.696271
7470 7468 -0.148022
7470 7469 -8.177807
7470 7470 16.0221
7471 2 -3.352085
7471 7017 -3.162165
7471 7471 14.750081
7471 7472 -9.370363
7471 7473 2.134532
7472 2 -0.49798
7472 6991 -0.019231
7472 7471 -8.230444
7472 7472 19.853437
7472 7473 -10.105783
7473 2 -6.788539
7473 7471 1.036902
7473 7472 -9.409086
7473 7473 16.160723
7474 2 -2.370129
7474 7021 -3.162165
7474 7474 10.725304
7474 7475 -6.546196
7474 7476 2.353186
7475 2 -0.764686
7475 6995 -0.019231
7475 7474 -4.106375
7475 7475 16.087814
7475 7476 -10.197522
7476 2 -6.696271
7476 7474 -0.148022
7476 7475 -8.177807
7476 7476 16.0221
7477 2 -3.352085
7477 7017 -3.162165
7477 7477 14.750081
7477 7478 -9.370363
7477 7479 2.134532
7478 2 -0.49798
7478 6991 -0.019231
7478 7477 -8.230444
7478 7478 19.853437
7478 7479 -10.105783
7479 2 -6.788539
7479 7477 1.036902
7479 7478 -9.409086
7479 7479 16.160723
7480 2 -2.370129
7480 7021 -3.162165
7480 7480 10.725304
7480 7481 -6.546196
7480 7482 2.353186
7481 2 -0.764686
7481 6995 -0.019231
7481 7480 -4.106375
7481 7481 16.087814
7481 7482 -10.197522
7482 2 -6.696271
7482 7480 -0.148022
7482 7481 -8.177807
7482 7482 16.0221
7483 2 -3.352085
7483 7017 -3.162165
7483 7483 14.750081
7483 7484 -9.370363
7483 7485 2.134532
7484 2 -0.49798
7484 6991 -0.019231
7484 7483 -8.230444
7484 7484 19.853437
7484 7485 -10.105783
7485 2 -6.788539
7485 7483 1.036902
7485 7484 -9.409086
7485 7485 16.160723
7486 2 -2.370129
7486 7021 -3.162165
7486 7486 10.725304
7486 7487 -6.546196
7486 7488 2.353186
7487 2 -0.764686
7487 6995 -0.019231
7487 7486 -4.106375
7487 7487 16.087814
7487 7488 -10.197522
7488 2 -6.696271
7488 7486 -0.148022
7488 7487 -8.177807
7488 7488 16.0221
7489 2 -5.471151
7489 7017 -2.052634
7489 7489 15.759868
7489 7490 -9.370464
7489 7491 2.134381
7490 2 -0.497965
7490 6991 -0.019231
7490 7489 -8.230864
7490 7490 19.853591
7490 7491 -10.105532
7491 2 -6.788546
7491 7489 1.037088
7491 7490 -9.40915
7491 7491 16.160609
7492 2 -3.872012
7492 7021 -2.052634
7492 7492 11.117656
7492 7493 -6.546195
7492 7494 2.353184
7493 2 -0.764686
7493 6995 -0.019231
7493 7492 -4.106376
7493 7493 16.08781
7493 7494 -10.197517
7494 2 -6.696271
7494 7492 -0.148021
7494 7493 -8.177804
7494 7494 16.022097
7495 1 -1.804648
7495 5 -17.420735
7495 6894 -0.11236
7495 7495 20.337743
7496 1 -1.737122
7496 5 -14.946259
7496 6896 -0.11236
7496 7496 17.795741
7497 1 -1.804648
7497 5 -17.420735
7497 6894 -0.11236
7497 7497 20.337743
7498 1 -1.737122
7498 5 -14.946259
7498 6896 -0.11236
7498 7498 17.795741
7499 1 -1.804648
7499 5 -17.420735
7499 6894 -0.11236
7499 7499 20.337743
7500 1 -1.737122
7500 5 -14.946259
7500 6896 -0.11236
7500 7500 17.795741
7501 1 -1.807517
7501 5 -17.420296
7501 6898 -0.11236
7501 7501 20.340173
7502 1 -1.746086
7502 5 -15.669506
7502 6897 -0.11236
7502 7502 18.527952
7503 1 -1.807517
7503 5 -17.420296
7503 6898 -0.11236
7503 7503 20.340173
7504 1 -1.746086
7504 5 -15.669506
7504 6897 -0.11236
7504 7504 18.527952
7505 1 -1.807517
7505 5 -17.420296
7505 6898 -0.11236
7505 7505 20.340173
7506 1 -1.746086
7506 5 -15.669506
7506 6897 -0.11236
7506 7506 18.527952
7507 6894 -1.020408
7507 7507 2.020408
7507 7514 -1.0
7508 1 -19.606396
7508 6898 -27.7502
7508 7508 48.356596
7509 1 -19.606396
7509 6894 -27.7502
7509 7509 48.356596
7510 6896 -1.020408
7510 7510 2.020408
7510 7513 -1.0
7511 1 -19.606396
7511 6897 -27.7502
7511 7511 48.356596
7512 1 -19.606396
7512 6896 -27.7502
7512 7512 48.356596
7513 6897 0.0
7513 7510 0.0
7513 7513 -399999.0
7514 6898 0.0
7514 7507 0.0
7514 7514 -399999.0
7515 27 0.0
7515 6893 0.0
7515 7515 -48999.0
7516 6892 0.0
7516 6898 0.0
7516 7516 -48999.0
7517 6891 0.0
7517 6897 0.0
7517 7517 -48999.0
7518 28 0.0
7518 6895 0.0
7518 7518 -48999.0
7519 6274 0.0
7519 6888 0.0
7519 7519 -399999.0
7520 6275 0.0
7520 6885 0.0
7520 7520 -399999.0
7521 6269 0.0
7521 6276 0.0
7521 7521 -48999.0
7522 6268 0.0
7522 6275 0.0
7522 7522 -48999.0
7523 6267 0.0
7523 6274 0.0
7523 7523 -48999.0
7524 6271 0.0
7524 6273 0.0
7524 7524 -48999.0
7525 5653 0.0
7525 6264 0.0
7525 7525 -399999.0
7526 5654 0.0
7526 6261 0.0
7526 7526 -399999.0
7527 39 0.0
7527 5649 0.0
7527 7527 -48999.0
7528 5648 0.0
7528 5654 0.0
7528 7528 -48999.0
7529 5647 0.0
7529 5653 0.0
7529 7529 -48999.0
7530 38 0.0
7530 5651 0.0
7530 7530 -48999.0
7531 5032 0.0
7531 5644 0.0
7531 7531 -399999.0
7532 5033 0.0
7532 5641 0.0
7532 7532 -399999.0
7533 5027 0.0
7533 5034 0.0
7533 7533 -48999.0
7534 5026 0.0
7534 5033 0.0
7534 7534 -48999.0
7535 5025 0.0
7535 5032 0.0
7535 7535 -48999.0
7536 5029 0.0
7536 5031 0.0
7536 7536 -48999.0
7537 4410 0.0
7537 5022 0.0
7537 7537 -399999.0
7538 4411 0.0
7538 5019 0.0
7538 7538 -399999.0
7539 4405 0.0
7539 4412 0.0
7539 7539 -48999.0
7540 4404 0.0
7540 4411 0.0
7540 7540 -48999.0
7541 4403 0.0
7541 4410 0.0
7541 7541 -48999.0
7542 4407 0.0
7542 4409 0.0
7542 7542 -48999.0
7543 3788 0.0
7543 4400 0.0
7543 7543 -399999.0
7544 3789 0.0
7544 4397 0.0
7544 7544 -399999.0
7545 3783 0.0
7545 3790 0.0
7545 7545 -48999.0
7546 3782 0.0
7546 3789 0.0
7546 7546 -48999.0
7547 3781 0.0
7547 3788 0.0
7547 7547 -48999.0
7548 3785 0.0
7548 3787 0.0
7548 7548 -48999.0
7549 3166 0.0
7549 3778 0.0
7549 7549 -399999.0
7550 3167 0.0
7550 3775 0.0
7550 7550 -399999.0
7551 3161 0.0
7551 3168 0.0
7551 7551 -48999.0
7552 3160 0.0
7552 3167 0.0
7552 7552 -48999.0
7553 3159 0.0
7553 3166 0.0
7553 7553 -48999.0
7554 3163 0.0
7554 3165 0.0
7554 7554 -48999.0
7555 2544 0.0
7555 3156 0.0
7555 7555 -399999.0
7556 2545 0.0
7556 3153 0.0
7556 7556 -399999.0
7557 2539 0.0
7557 2546 0.0
7557 7557 -48999.0
7558 2538 0.0
7558 2545 0.0
7558 7558 -48999.0
7559 2537 0.0
7559 2544 0.0
7559 7559 -48999.0
7560 2541 0.0
7560 2543 0.0
7560 7560 -48999.0
7561 1921 0.0
7561 2534 0.0
7561 7561 -399999.0
7562 1922 0.0
7562 2531 0.0
7562 7562 -399999.0
7563 1294 0.0
7563 1917 0.0
7563 7563 -48999.0
7564 1916 0.0
7564 1922 0.0
7564 7564 -48999.0
7565 1915 0.0
7565 1921 0.0
7565 7565 -48999.0
7566 1292 0.0
7566 1919 0.0
7566 7566 -48999.0
7567 1299 0.0
7567 1912 0.0
7567 7567 -399999.0
7568 1300 0.0
7568 1909 0.0
7568 7568 -399999.0
7569 670 0.0
7569 1295 0.0
7569 7569 -48999.0
7570 1293 0.0
7570 1300 0.0
7570 7570 -48999.0
7571 1291 0.0
7571 1299 0.0
7571 7571 -48999.0
7572 668 0.0
7572 1297 0.0
7572 7572 -48999.0
7573 675 0.0
7573 1288 0.0
7573 7573 -399999.0
7574 676 0.0
7574 1285 0.0
7574 7574 -399999.0
7575 44 0.0
7575 671 0.0
7575 7575 -48999.0
7576 669 0.0
7576 676 0.0
7576 7576 -48999.0
7577 667 0.0
7577 675 0.0
7577 7577 -48999.0
7578 42 0.0
7578 673 0.0
7578 7578 -48999.0
7579 50 0.0
7579 664 0.0
7579 7579 -399999.0
7580 51 0.0
7580 661 0.0
7580 7580 -399999.0
7581 45 0.0
7581 52 0.0
7581 7581 -48999.0
7582 43 0.0
7582 51 0.0
7582 7582 -48999.0
7583 41 0.0
7583 50 0.0
7583 7583 -48999.0
7584 47 0.0
7584 49 0.0
7584 7584 -48999.0
7585 36 0.0
7585 37 0.0
7585 7585 -137499.0
7586 34 0.0
7586 35 0.0
7586 7586 -87499.0
7587 32 0.0
7587 33 0.0
7587 7587 -87499.0
7588 30 0.0
7588 31 0.0
7588 7588 -137499.0
7589 25 0.0
7589 26 0.0
7589 7589 -119999.0
7590 23 0.0
7590 24 0.0
7590 7590 -104749.0
7591 21 0.0
7591 22 0.0
7591 7591 -104749.0
7592 19 0.0
7592 20 0.0
7592 7592 -119999.0
7593 5 1.0
7594 2 1.0
7595 1 1.0
7596 3 1.0
7597 6 1.0
7598 4 1.0
